Zn In2 S4
1.0
       10.5900001526         0.0000000000         0.0000000000
        0.0000000000        10.5900001526         0.0000000000
        0.0000000000         0.0000000000        10.5900001526
   Zn   In    S
    8   16   32
Cartesian
     0.000000000         0.000000000         0.000000000
     0.000000000         5.295000076         5.295000076
     5.295000076         5.295000076         0.000000000
     5.295000076         0.000000000         5.295000076
     7.942500114         2.647500038         7.942500114
     2.647500038         2.647500038         2.647500038
     2.647500038         7.942500114         7.942500114
     7.942500114         7.942500114         2.647500038
     6.618750095         6.618750095         6.618750095
     3.971250057         9.266250134         1.323750019
     9.266250134         1.323750019         3.971250057
     1.323750019         3.971250057         9.266250134
     9.266250134         3.971250057         1.323750019
     3.971250057         1.323750019         9.266250134
     1.323750019         9.266250134         3.971250057
     6.618750095         1.323750019         1.323750019
     3.971250057         3.971250057         6.618750095
     9.266250134         6.618750095         9.266250134
     9.266250134         9.266250134         6.618750095
     3.971250057         6.618750095         3.971250057
     1.323750019         6.618750095         1.323750019
     6.618750095         3.971250057         3.971250057
     6.618750095         9.266250134         9.266250134
     1.323750019         1.323750019         6.618750095
     4.055969915         4.055969915         4.055969915
     6.534029922         1.239030162         9.350970306
     1.239030162         9.350970306         6.534029922
     9.350970306         6.534029922         1.239030162
     1.408469876         6.703470268         3.886530200
     9.181529961         9.181529961         9.181529961
     6.703470268         3.886530200         1.408469876
     3.886530200         1.408469876         6.703470268
     6.703470268         1.408469876         3.886530200
     1.408469876         3.886530200         6.703470268
     3.886530200         6.703470268         1.408469876
     1.239030162         6.534029922         9.350970306
     6.534029922         9.350970306         1.239030162
     9.350970306         1.239030162         6.534029922
     4.055969915         9.350970306         9.350970306
     6.534029922         6.534029922         4.055969915
     1.239030162         4.055969915         1.239030162
     1.408469876         1.408469876         9.181529961
     9.181529961         3.886530200         3.886530200
     6.703470268         9.181529961         6.703470268
     6.703470268         6.703470268         9.181529961
     1.408469876         9.181529961         1.408469876
     1.239030162         1.239030162         4.055969915
     6.534029922         4.055969915         6.534029922
     9.350970306         4.055969915         9.350970306
     4.055969915         6.534029922         6.534029922
     3.886530200         9.181529961         3.886530200
     9.181529961         1.408469876         1.408469876
     9.181529961         6.703470268         6.703470268
     4.055969915         1.239030162         1.239030162
     9.350970306         9.350970306         4.055969915
     3.886530200         3.886530200         9.181529961
