K-Path Generated by VASPKIT.
   20
Line-Mode
Reciprocal
   0.0000000000   0.0000000000   0.0000000000     GAMMA          
   0.5000000000   0.5000000000   0.5000000000     T              
 
   0.5000000000   0.5000000000   0.5000000000     T              
   0.8279646807   0.1720353193   0.5000000000     H_2            
 
   0.5000000000  -0.1720353193   0.1720353193     H_0            
   0.5000000000   0.0000000000   0.0000000000     L              
 
   0.5000000000   0.0000000000   0.0000000000     L              
   0.0000000000   0.0000000000   0.0000000000     GAMMA          
 
   0.0000000000   0.0000000000   0.0000000000     GAMMA          
   0.3360176597  -0.3360176597   0.0000000000     S_0            
 
   0.6639823403   0.0000000000   0.3360176597     S_2            
   0.5000000000   0.0000000000   0.5000000000     F              
 
   0.5000000000   0.0000000000   0.5000000000     F              
   0.0000000000   0.0000000000   0.0000000000     GAMMA          
 
