Primitive Cell                          
   1.00000000000000     
     1.9446880049390358    1.1227661331433194   12.2521653539297617
    -1.9446880670432722    1.1227661510490681   12.2521653464229647
    -0.0000000143796376   -2.2455323450431757   12.2521653549847507
   Zn   In   S 
     1     2     4
Direct
  0.3917501060188943  0.3917501040881751  0.3917500922719780
  0.1617819257616975  0.1617819314005085  0.1617819706948638
  0.9371346603255015  0.9371346667285233  0.9371346561793589
  0.0437934969501947  0.0437934982622709  0.0437934993579426
  0.2995937120475625  0.2995937065479979  0.2995936781836738
  0.4609670316063879  0.4609670287162059  0.4609670078534410
  0.8703790672897598  0.8703790642563161  0.8703790954587398
 
  0.00000000E+00  0.00000000E+00  0.00000000E+00
  0.00000000E+00  0.00000000E+00  0.00000000E+00
  0.00000000E+00  0.00000000E+00  0.00000000E+00
  0.00000000E+00  0.00000000E+00  0.00000000E+00
  0.00000000E+00  0.00000000E+00  0.00000000E+00
  0.00000000E+00  0.00000000E+00  0.00000000E+00
  0.00000000E+00  0.00000000E+00  0.00000000E+00
