Primitive Cell                          
   1.00000000000000     
     1.9467325717862756    1.1239465334312266   12.2577056531295288
    -1.9467325669219309    1.1239465192905385   12.2577056201664742
     0.0000000018739837   -2.2478932129439784   12.2577056302589469
   Zn   In   S 
     1     2     4
Direct
  0.3917395360181644  0.3917395660112604  0.3917395158606212
  0.1617853109627063  0.1617853033157033  0.1617853154730753
  0.9371296975011845  0.9371296820736177  0.9371297102434681
  0.0438217755167756  0.0438218107374979  0.0438217562983780
  0.2995323702829253  0.2995323499248812  0.2995323807405512
  0.4610157303409892  0.4610157042612997  0.4610157329351878
  0.8703755793772601  0.8703755836757594  0.8703755884487236
 
  0.00000000E+00  0.00000000E+00  0.00000000E+00
  0.00000000E+00  0.00000000E+00  0.00000000E+00
  0.00000000E+00  0.00000000E+00  0.00000000E+00
  0.00000000E+00  0.00000000E+00  0.00000000E+00
  0.00000000E+00  0.00000000E+00  0.00000000E+00
  0.00000000E+00  0.00000000E+00  0.00000000E+00
  0.00000000E+00  0.00000000E+00  0.00000000E+00
