Si8
1.0
       10.8874044418         0.0000000000         0.0000000000
        0.0000000000        10.8874044418         0.0000000000
        0.0000000000         0.0000000000        20.8874034882
   Si
   72
Cartesian
     4.082776990         4.082776990         1.360925922
     4.082776990         4.082776990         6.804627433
     4.082776990         9.526478887         1.360925922
     4.082776990         9.526478887         6.804627433
     9.526478887         4.082776990         1.360925922
     9.526478887         4.082776990         6.804627433
     9.526478887         9.526478887         1.360925922
     9.526478887         9.526478887         6.804627433
     0.000000000         2.721851110         2.721850911
     0.000000000         2.721851110         8.165552422
     0.000000000         8.165553331         2.721850911
     0.000000000         8.165553331         8.165552422
     5.443702221         2.721851110         2.721850911
     5.443702221         2.721851110         8.165552422
     5.443702221         8.165553331         2.721850911
     5.443702221         8.165553331         8.165552422
     4.082776990         1.360926042         4.082776833
     4.082776990         1.360926042         9.526478033
     4.082776990         6.804627776         4.082776833
     4.082776990         6.804627776         9.526478033
     9.526478887         1.360926042         4.082776833
     9.526478887         1.360926042         9.526478033
     9.526478887         6.804627776         4.082776833
     9.526478887         6.804627776         9.526478033
     0.000000000         0.000000000         0.000000000
     0.000000000         0.000000000        10.887403644
     0.000000000         0.000000000         5.443701822
     0.000000000         5.443702221         0.000000000
     0.000000000         5.443702221        10.887403644
     0.000000000         5.443702221         5.443701822
     5.443702221         0.000000000         0.000000000
     5.443702221         0.000000000        10.887403644
     5.443702221         0.000000000         5.443701822
     5.443702221         5.443702221         0.000000000
     5.443702221         5.443702221        10.887403644
     5.443702221         5.443702221         5.443701822
     1.360926042         4.082776990         4.082776833
     1.360926042         4.082776990         9.526478033
     1.360926042         9.526478887         4.082776833
     1.360926042         9.526478887         9.526478033
     6.804627776         4.082776990         4.082776833
     6.804627776         4.082776990         9.526478033
     6.804627776         9.526478887         4.082776833
     6.804627776         9.526478887         9.526478033
     2.721851110         2.721851110         0.000000000
     2.721851110         2.721851110        10.887403644
     2.721851110         2.721851110         5.443701822
     2.721851110         8.165553331         0.000000000
     2.721851110         8.165553331        10.887403644
     2.721851110         8.165553331         5.443701822
     8.165553331         2.721851110         0.000000000
     8.165553331         2.721851110        10.887403644
     8.165553331         2.721851110         5.443701822
     8.165553331         8.165553331         0.000000000
     8.165553331         8.165553331        10.887403644
     8.165553331         8.165553331         5.443701822
     1.360926042         1.360926042         1.360925922
     1.360926042         1.360926042         6.804627433
     1.360926042         6.804627776         1.360925922
     1.360926042         6.804627776         6.804627433
     6.804627776         1.360926042         1.360925922
     6.804627776         1.360926042         6.804627433
     6.804627776         6.804627776         1.360925922
     6.804627776         6.804627776         6.804627433
     2.721851110         0.000000000         2.721850911
     2.721851110         0.000000000         8.165552422
     2.721851110         5.443702221         2.721850911
     2.721851110         5.443702221         8.165552422
     8.165553331         0.000000000         2.721850911
     8.165553331         0.000000000         8.165552422
     8.165553331         5.443702221         2.721850911
     8.165553331         5.443702221         8.165552422
