SYSTEM = PDOS-Calculation-SCF-run
ISTART = 0
ICHARG = 2

# Electronic Parameters
ENCUT = 360.0
ISMEAR = 0
SIGMA = 0.05
LREAL = .FALSE.
PREC = Accurate
EDIFF = 1E-07
NELM = 100
ALGO = Normal

# Parallelization
NCORE = 9

# Magnetic Properties
ISPIN = 1
#MAGMOM = 66*0.6 4*0.6 1*5.0

# I/O Settings
LWAVE = .TRUE.
LCHARG = .TRUE.