##### initial parameters I/O #####
SYSTEM = Si
NCORE = 9
ISTART = 1
ICHARG = 1
LWAVE = .TRUE.
LCHARG = .TRUE.
LVTOT = .FALSE.
LVHAR = .TRUE.                      # for Work function calculation
LELF = .FALSE.

#### Electronic Relaxation ####
ENCUT = 320
ISMEAR = 1
SIGMA = 0.05
EDIFF = 1E-6
NELMIN = 5
NELM = 300
GGA = PE
LREAL = Auto
IDIPOL = 3