Si234                                   
   1.00000000000000     
    16.3311061859000013    0.0000000000000000    0.0000000000000000
     0.0000000000000000   16.3311061859000013    0.0000000000000000
     0.0000000000000000    0.0000000000000000   31.3311061859000013
   Si
   234
Direct
  0.2404468536815469  0.2514786963921654  0.0415820332691636
  0.2496829125541206  0.2499030045513853  0.2182477230599240
  0.2520888732605907  0.2466919549243599  0.3907968899363056
  0.2554675866988870  0.5777946969519487  0.0412370149122736
  0.2477626134274063  0.5859975632896569  0.2179882578506386
  0.2450841343359183  0.5878754115749952  0.3908861500418340
  0.2469228761442163  0.9198433109174194  0.0395309860471542
  0.2499190278266949  0.9175766779568759  0.2149081121386137
  0.2452109563327882  0.9205504633063100  0.3920164241499423
  0.5802545545674419  0.2523905590924517  0.0401798270405255
  0.5824284109505862  0.2510490867394206  0.2152198932188655
  0.5838487653490629  0.2520733991218396  0.3874403376963963
  0.5818071447633820  0.5928570283624491  0.0415306032655266
  0.5834693754900599  0.5836307994112128  0.2176505914411649
  0.5862772698748272  0.5799212516990409  0.3905603430431355
  0.5930277643393691  0.9177962734052589  0.0420145625981315
  0.5810238572768329  0.9177330991397927  0.2178667932918043
  0.5815537554713094  0.9175798771687239  0.3930927311621292
  0.9156364235547297  0.2404119101910374  0.0420327054918698
  0.9160892537841997  0.2523319729348552  0.2178160755038706
  0.9145696893470822  0.2509310907929878  0.3944294691274222
  0.9131058989899328  0.5856352989491076  0.0394797021723144
  0.9159196972946216  0.5833798027478407  0.2150357390850693
  0.9142262773679835  0.5882167132954066  0.3907195896538540
  0.9114976059246511  0.9218329137130158  0.0443801485875823
  0.9163605604538563  0.9172440006064247  0.2178893248299658
  0.9198021151285550  0.9141656498322080  0.3906926230783082
 -0.0013596023119653  0.1666297776046781  0.0911200013717898
  0.0000184289137802  0.1671553320834904  0.2605901206324682
 -0.0018316501209425  0.1668104292842913  0.4380036027442433
  0.0017919196181733  0.4988354993813673  0.0832567037512964
 -0.0029520840997276  0.5009449177651729  0.2606331935493076
  0.0008055473978450  0.5033649859172006  0.4313912335997771
 -0.0020731315184844  0.8353512042376816  0.0845524458032762
  0.0000776531488713  0.8338133628254948  0.2603306225937804
  0.0049846070769122  0.8298286036600532  0.4351069435674223
  0.3301417552461539  0.1695279824879509  0.0832896831550875
  0.3333144257012666  0.1663900351759736  0.2606530694098049
  0.3341021302465149  0.1674889467016269  0.4379746909236144
  0.3301941243048451  0.5033108857782703  0.0918770430045213
  0.3326002929567137  0.5003698283205160  0.2602053026321180
  0.3264504506218764  0.5052499917942330  0.4342593233756124
  0.3348914483169158  0.8320520724384153  0.0831698752956769
  0.3323034058853453  0.8366274665444836  0.2604583630436726
  0.3305036506634650  0.8326115246569017  0.4315539334378172
  0.6695744136477871  0.1643689278828681  0.0830276350949821
  0.6641857019781963  0.1697590004080724  0.2611971306166456
  0.6660985666097908  0.1675589502528573  0.4301309516509885
  0.6636414073937486  0.5029795962529826  0.0831980981836322
  0.6668731774797509  0.5004657515472923  0.2602536177533580
  0.6660406370526776  0.4999307292986918  0.4388111352704785
  0.6669560272488290  0.8350527860426583  0.0911118654479679
  0.6663650584042183  0.8330078667546915  0.2601811034114733
  0.6662421809384504  0.8363278964893709  0.4373324139023316
  0.2479607213029247  0.0853683431393434  0.1275419216786786
  0.2504410210982141  0.0829961722927316  0.3043662320583074
  0.2402580018709791  0.0899439037451813  0.4806493756157601
  0.2490923075387147  0.4181651296446152  0.1345835838513804
  0.2486956047961805  0.4176201968774933  0.3038640595625232
  0.2517477386546385  0.4169726010909698  0.4795773957651008
  0.2494546955554143  0.7501974564678303  0.1278348206128412
  0.2490465549070924  0.7528764009600540  0.3034847392037768
  0.2567518835448723  0.7517213518914015  0.4806118489894218
  0.5832173048556698  0.0840347794973177  0.1280119583925903
  0.5799367082841271  0.0838278283629416  0.3034442181069152
  0.5931517735918033  0.0834690307797466  0.4797562153750625
  0.5812883982138231  0.4196916161212267  0.1279466549539703
  0.5838239282432847  0.4171898587267169  0.3037421997358191
  0.5829611267825459  0.4075019570606626  0.4796489738261283
  0.5842737781972747  0.7494177149278451  0.1330997035381218
  0.5825401945625973  0.7504982094772584  0.3039929820097732
  0.5872210680919555  0.7425685848531320  0.4788991862245979
  0.9154731371063407  0.0848178587294059  0.1346236468498978
  0.9160455215699931  0.0843075079141272  0.3039822316491720
  0.9148826277365146  0.0748379505435584  0.4783577479651382
  0.9172697444117300  0.4162178122110359  0.1277666200197052
  0.9152763453877450  0.4181432205993657  0.3057361143231149
  0.9199674498379320  0.4205525215406429  0.4791819097140118
  0.9136347049886629  0.7521282821817510  0.1279072050585758
  0.9174925918326947  0.7499366688875267  0.3037789330393001
  0.9195733080008694  0.7470770276671742  0.4791910158777338
 -0.0479111339854020  0.0501828887831927  0.0182734707317976
 -0.0290335826023674 -0.0265331984126911  0.5244047348774615
  0.0007567290880587 -0.0001748662518118  0.1749644383871044
 -0.0002382919886051  0.0003483221793032  0.3470316171940743
  0.0416757246150621  0.2917008947715908  0.0186159004716858
  0.0487996676115371  0.3750784279960949  0.5020061894742914
 -0.0011237323185604  0.3345645484790924  0.1736850620561272
 -0.0012417020390378  0.3327319553340169  0.3491545952235637
  0.0445619009249446  0.6216878984933798  0.0126956133003030
 -0.0237077727609156  0.6447892535666070  0.5253469316812216
 -0.0014625155568791  0.6679164201300327  0.1710013271353889
  0.0007407975822438  0.6677621494375996  0.3477269722918155
  0.3774658320981364 -0.0454296190660593  0.0111635990622700
  0.2887116193545551 -0.0380937219467848  0.5035989187861117
  0.3323234903117208  0.0011604913545536  0.1705398260032382
  0.3322610542239753  0.0020869501883346  0.3498438956608408
  0.2832049060806244  0.3811268597527918  0.0182658333590932
  0.3571053737825028  0.3594466703429539  0.5230757196544648
  0.3335830211740427  0.3325027501289772  0.1750170115272492
  0.3320694002869313  0.3337491424150856  0.3471597638206511
  0.3512252883298649  0.6455106933523671 -0.0052831706854019
  0.3567229614466041  0.6882025033317104  0.5262080831251471
  0.3304563370751361  0.6700785813191090  0.1747659815696849
  0.3310737982169227  0.6674315764455544  0.3465497971242388
  0.6878359434218383 -0.0174652389186342 -0.0052559321999685
  0.6923012532309082  0.0267446716189760  0.5275326265817820
  0.6632306694747578  0.0030839606582566  0.1749953259894843
  0.6627147587571868 -0.0012333009807910  0.3462802883810133
  0.7109715212044909  0.2882459909571064  0.0126877925529679
  0.6394290995764220  0.3080666711791484  0.5277792677013146
  0.6656550495529453  0.3351828346720906  0.1712034257529477
  0.6689885424587265  0.3371337525701303  0.3475275380588428
  0.6388327832870571  0.6945318736343584 -0.0043320135850937
  0.6269704487568935  0.6238037846957992  0.5161364258166794
  0.6681601488115354  0.6652963529344519  0.1744368024461566
  0.6664390438981803  0.6671024976333706  0.3472774949657497
  0.0843349618928090  0.2490710058706400  0.1332366780470735
  0.0821343255197301  0.2510025742773362  0.3044785899307281
  0.0914007223164742  0.2436568840990646  0.4813128739376743
  0.0835625997829633  0.5842366138483412  0.1279116710376269
  0.0811972538993042  0.5840346377034037  0.3035678554245204
  0.0771248476761697  0.5803167356122977  0.4808271914179223
  0.0810916214039342  0.9196804112826602  0.1279698413872797
  0.0838273085309122  0.9163470030852201  0.3040877449985623
  0.0779870209189667  0.9201427256593450  0.4801438830177642
  0.4135025766680457  0.2519530331717647  0.1280177389397913
  0.4163426272134620  0.2496751705185905  0.3042546854726617
  0.4169117766979187  0.2593123394741039  0.4781460541927311
  0.4153139525566287  0.5845351663837707  0.1344994993171787
  0.4155544915351717  0.5840846264255185  0.3036204177593092
  0.4116866033902897  0.5869880268356262  0.4788468871077651
  0.4174581038313492  0.9165425848972467  0.1277455272080124
  0.4146999481098841  0.9186000883310531  0.3055384546088160
  0.4145804593715977  0.9122836821313243  0.4791951284606346
  0.7497487595115536  0.2507403208305500  0.1280149903563295
  0.7504999177442341  0.2533849841497403  0.3037124554390672
  0.7388816607144426  0.2514425148068083  0.4800446335218629
  0.7480175758581121  0.5851172528614076  0.1273718208784065
  0.7502285944798960  0.5833301535842028  0.3040791490124928
  0.7494256927525865  0.5939791648437049  0.4797117605555961
  0.7488038045867493  0.9182463869410165  0.1346177639076165
  0.7490742261413421  0.9172522531179846  0.3033849505510105
  0.7480414545070039  0.9276827190578798  0.4789366718677249
  0.1388513457162266  0.1945312741264975 -0.0043445693349674
  0.1973816088072523  0.1967715007863860  0.5265535282342619
  0.1681317653292661  0.1652207789070507  0.1748725855757481
  0.1661577336982881  0.1668579474493657  0.3470827899675222
  0.1877661287577351  0.4820723493305953 -0.0052988968363734
  0.1424122485838745  0.4739611660536078  0.5201762252781824
  0.1636428164267336  0.5032457231691132  0.1748308793203191
  0.1652497079682606  0.5012749680215758  0.3471631056819081
  0.2109476039572315  0.7883024378275141  0.0127426665701728
  0.1929158100517744  0.8633406411303741  0.5153660462695963
  0.1654870872759967  0.8348231494223909  0.1709560039228603
  0.1665191235506481  0.8338421439357683  0.3481705232112793
  0.5442871519148585  0.1215634166737228  0.0127389902023529
  0.5434097772028237  0.2104565093607895  0.5025476978062918
  0.4983995715460481  0.1677770649179188  0.1711704759840632
  0.4980284821233185  0.1657013572070990  0.3480743547213707
  0.4521706612966738  0.5500363009059331  0.0182040969396828
  0.4560912459296805  0.4571392487384398  0.5029502251816400
  0.5005478345916901  0.4994954095398869  0.1748352791658838
  0.4992061001441191  0.5002547615235481  0.3468960203184948
  0.5416844164665519  0.7917283991010871  0.0185800207596978
  0.4551760018513659  0.7809403334134840  0.5016478116905665
  0.4989690555392894  0.8348743590418110  0.1736696696611113
  0.5000466376678012  0.8339059429652486  0.3480041101456242
  0.8510728291318760  0.1455515788008713 -0.0052741455347318
  0.7883305666892491  0.1243841949230100  0.5025139387940826
  0.8306556638537046  0.1705357680840832  0.1748750725873039
  0.8337552571478988  0.1695814928902286  0.3472661433053792
  0.8780035995620591  0.4548713089286164  0.0111969577977562
  0.8785025700179433  0.5494096403096956  0.5036764916591669
  0.8323464157914039  0.5010609219022387  0.1705708512493351
  0.8316292864693001  0.5017539621166515  0.3491680047922213
  0.7831333980989227  0.8813465605389126  0.0182470796767961
  0.8743489415264128  0.8768684214372688  0.5021043688515592
  0.8337869575607756  0.8328189649605289  0.1748449255561741
  0.8335937086545363  0.8344181054891412  0.3466046108491518
  0.0817731670195893  0.0929235828351638  0.0415389868915951
  0.0844590036792215  0.0825769336907732  0.2181955926247436
  0.0792679125558702  0.0874309384736573  0.3905511023644877
  0.0931197501824774  0.4176587487488548  0.0422125335350867
  0.0806765162684939  0.4182880305390166  0.2174989568188513
  0.0855405133446469  0.4152155178208835  0.3912661224425411
  0.0799259221547095  0.7528300062940244  0.0397370876131269
  0.0820874778234030  0.7513269570441785  0.2151217666979333
  0.0867604158209973  0.7472433415796405  0.3919353860939258
  0.4126513420148399  0.0854943785034911  0.0392308663154835
  0.4150319715388138  0.0839139078754137  0.2152000367808369
  0.4173889858223148  0.0834597279178721  0.3945141372897868
  0.4116199785653004  0.4216855242211542  0.0443245830175000
  0.4171231185271991  0.4160180128396898  0.2179594640447537
  0.4121059777250854  0.4204564976249431  0.3904914074173119
  0.4156992163763691  0.7403312976792938  0.0421251820413863
  0.4152613773915194  0.7529628259145250  0.2174801875125248
  0.4167998453345663  0.7479938730175082  0.3899310998913156
  0.7555954392023062  0.0779780898017472  0.0414673614834577
  0.7470343537224353  0.0869158747980721  0.2178382532428026
  0.7478855478629104  0.0832800314755083  0.3868495039004293
  0.7471034197842049  0.4199878521635638  0.0391447746693759
  0.7497806351594862  0.4182328471989651  0.2152932605468596
  0.7506603770436032  0.4179832928329028  0.3941333993926406
  0.7404510242995532  0.7516298956694980  0.0415186565490629
  0.7507977678746026  0.7488913200146300  0.2177364932384568
  0.7463834234542942  0.7552454073453290  0.3901429497977353
  0.1634416256866159  0.0032444394354071  0.0833915288026009
  0.1683146928502035 -0.0013216284072981  0.2606760559301253
  0.1590708995037383  0.0047238104062313  0.4352670057601842
  0.1671186275173706  0.3347483888117382  0.0912630682188925
  0.1646600088923240  0.3346435686719115  0.2605768074295501
  0.1725119240402523  0.3311342344522192  0.4348120213894446
  0.1692749984648685  0.6644006734806615  0.0824975002095942
  0.1642316463981671  0.6693064822633158  0.2606207435311002
  0.1662223514418073  0.6666567554405088  0.4399863000808034
  0.5016815461064801 -0.0009977170043076  0.0829950824321742
  0.4963235160445852  0.0009399936522270  0.2603385080775737
  0.5013788887936786  0.0008237008923790  0.4389981016661726
  0.4978963621008418  0.3352353656292084  0.0847059443115990
  0.5007475708099332  0.3324317073336712  0.2607858917630608
  0.4997166798443818  0.3353078997057541  0.4298917670732609
  0.4987611636842285  0.6664204053821625  0.0911539607579467
  0.4987380213848805  0.6680218543469592  0.2602213307651460
  0.5004405653512303  0.6601361724779909  0.4329706169463852
  0.8303275392344942  0.0033476427307951  0.0921013830671872
  0.8315270230367955  0.0022548684141859  0.2602040381555997
  0.8318317091461034 -0.0000543697964183  0.4295371626905458
  0.8347664953592359  0.3321983404300641  0.0829517487181234
  0.8330717768264552  0.3367662217736809  0.2603724142038430
  0.8310579810358347  0.3336338632797037  0.4393086308177876
  0.8301133003190581  0.6696864266214281  0.0832779283611942
  0.8346514620814168  0.6655467429687807  0.2604659551848141
  0.8306157679090325  0.6753461055941258  0.4333543484297326
 
  0.00000000E+00  0.00000000E+00  0.00000000E+00
  0.00000000E+00  0.00000000E+00  0.00000000E+00
  0.00000000E+00  0.00000000E+00  0.00000000E+00
  0.00000000E+00  0.00000000E+00  0.00000000E+00
  0.00000000E+00  0.00000000E+00  0.00000000E+00
  0.00000000E+00  0.00000000E+00  0.00000000E+00
  0.00000000E+00  0.00000000E+00  0.00000000E+00
  0.00000000E+00  0.00000000E+00  0.00000000E+00
  0.00000000E+00  0.00000000E+00  0.00000000E+00
  0.00000000E+00  0.00000000E+00  0.00000000E+00
  0.00000000E+00  0.00000000E+00  0.00000000E+00
  0.00000000E+00  0.00000000E+00  0.00000000E+00
  0.00000000E+00  0.00000000E+00  0.00000000E+00
  0.00000000E+00  0.00000000E+00  0.00000000E+00
  0.00000000E+00  0.00000000E+00  0.00000000E+00
  0.00000000E+00  0.00000000E+00  0.00000000E+00
  0.00000000E+00  0.00000000E+00  0.00000000E+00
  0.00000000E+00  0.00000000E+00  0.00000000E+00
  0.00000000E+00  0.00000000E+00  0.00000000E+00
  0.00000000E+00  0.00000000E+00  0.00000000E+00
  0.00000000E+00  0.00000000E+00  0.00000000E+00
  0.00000000E+00  0.00000000E+00  0.00000000E+00
  0.00000000E+00  0.00000000E+00  0.00000000E+00
  0.00000000E+00  0.00000000E+00  0.00000000E+00
  0.00000000E+00  0.00000000E+00  0.00000000E+00
  0.00000000E+00  0.00000000E+00  0.00000000E+00
  0.00000000E+00  0.00000000E+00  0.00000000E+00
  0.00000000E+00  0.00000000E+00  0.00000000E+00
  0.00000000E+00  0.00000000E+00  0.00000000E+00
  0.00000000E+00  0.00000000E+00  0.00000000E+00
  0.00000000E+00  0.00000000E+00  0.00000000E+00
  0.00000000E+00  0.00000000E+00  0.00000000E+00
  0.00000000E+00  0.00000000E+00  0.00000000E+00
  0.00000000E+00  0.00000000E+00  0.00000000E+00
  0.00000000E+00  0.00000000E+00  0.00000000E+00
  0.00000000E+00  0.00000000E+00  0.00000000E+00
  0.00000000E+00  0.00000000E+00  0.00000000E+00
  0.00000000E+00  0.00000000E+00  0.00000000E+00
  0.00000000E+00  0.00000000E+00  0.00000000E+00
  0.00000000E+00  0.00000000E+00  0.00000000E+00
  0.00000000E+00  0.00000000E+00  0.00000000E+00
  0.00000000E+00  0.00000000E+00  0.00000000E+00
  0.00000000E+00  0.00000000E+00  0.00000000E+00
  0.00000000E+00  0.00000000E+00  0.00000000E+00
  0.00000000E+00  0.00000000E+00  0.00000000E+00
  0.00000000E+00  0.00000000E+00  0.00000000E+00
  0.00000000E+00  0.00000000E+00  0.00000000E+00
  0.00000000E+00  0.00000000E+00  0.00000000E+00
  0.00000000E+00  0.00000000E+00  0.00000000E+00
  0.00000000E+00  0.00000000E+00  0.00000000E+00
  0.00000000E+00  0.00000000E+00  0.00000000E+00
  0.00000000E+00  0.00000000E+00  0.00000000E+00
  0.00000000E+00  0.00000000E+00  0.00000000E+00
  0.00000000E+00  0.00000000E+00  0.00000000E+00
  0.00000000E+00  0.00000000E+00  0.00000000E+00
  0.00000000E+00  0.00000000E+00  0.00000000E+00
  0.00000000E+00  0.00000000E+00  0.00000000E+00
  0.00000000E+00  0.00000000E+00  0.00000000E+00
  0.00000000E+00  0.00000000E+00  0.00000000E+00
  0.00000000E+00  0.00000000E+00  0.00000000E+00
  0.00000000E+00  0.00000000E+00  0.00000000E+00
  0.00000000E+00  0.00000000E+00  0.00000000E+00
  0.00000000E+00  0.00000000E+00  0.00000000E+00
  0.00000000E+00  0.00000000E+00  0.00000000E+00
  0.00000000E+00  0.00000000E+00  0.00000000E+00
  0.00000000E+00  0.00000000E+00  0.00000000E+00
  0.00000000E+00  0.00000000E+00  0.00000000E+00
  0.00000000E+00  0.00000000E+00  0.00000000E+00
  0.00000000E+00  0.00000000E+00  0.00000000E+00
  0.00000000E+00  0.00000000E+00  0.00000000E+00
  0.00000000E+00  0.00000000E+00  0.00000000E+00
  0.00000000E+00  0.00000000E+00  0.00000000E+00
  0.00000000E+00  0.00000000E+00  0.00000000E+00
  0.00000000E+00  0.00000000E+00  0.00000000E+00
  0.00000000E+00  0.00000000E+00  0.00000000E+00
  0.00000000E+00  0.00000000E+00  0.00000000E+00
  0.00000000E+00  0.00000000E+00  0.00000000E+00
  0.00000000E+00  0.00000000E+00  0.00000000E+00
  0.00000000E+00  0.00000000E+00  0.00000000E+00
  0.00000000E+00  0.00000000E+00  0.00000000E+00
  0.00000000E+00  0.00000000E+00  0.00000000E+00
  0.00000000E+00  0.00000000E+00  0.00000000E+00
  0.00000000E+00  0.00000000E+00  0.00000000E+00
  0.00000000E+00  0.00000000E+00  0.00000000E+00
  0.00000000E+00  0.00000000E+00  0.00000000E+00
  0.00000000E+00  0.00000000E+00  0.00000000E+00
  0.00000000E+00  0.00000000E+00  0.00000000E+00
  0.00000000E+00  0.00000000E+00  0.00000000E+00
  0.00000000E+00  0.00000000E+00  0.00000000E+00
  0.00000000E+00  0.00000000E+00  0.00000000E+00
  0.00000000E+00  0.00000000E+00  0.00000000E+00
  0.00000000E+00  0.00000000E+00  0.00000000E+00
  0.00000000E+00  0.00000000E+00  0.00000000E+00
  0.00000000E+00  0.00000000E+00  0.00000000E+00
  0.00000000E+00  0.00000000E+00  0.00000000E+00
  0.00000000E+00  0.00000000E+00  0.00000000E+00
  0.00000000E+00  0.00000000E+00  0.00000000E+00
  0.00000000E+00  0.00000000E+00  0.00000000E+00
  0.00000000E+00  0.00000000E+00  0.00000000E+00
  0.00000000E+00  0.00000000E+00  0.00000000E+00
  0.00000000E+00  0.00000000E+00  0.00000000E+00
  0.00000000E+00  0.00000000E+00  0.00000000E+00
  0.00000000E+00  0.00000000E+00  0.00000000E+00
  0.00000000E+00  0.00000000E+00  0.00000000E+00
  0.00000000E+00  0.00000000E+00  0.00000000E+00
  0.00000000E+00  0.00000000E+00  0.00000000E+00
  0.00000000E+00  0.00000000E+00  0.00000000E+00
  0.00000000E+00  0.00000000E+00  0.00000000E+00
  0.00000000E+00  0.00000000E+00  0.00000000E+00
  0.00000000E+00  0.00000000E+00  0.00000000E+00
  0.00000000E+00  0.00000000E+00  0.00000000E+00
  0.00000000E+00  0.00000000E+00  0.00000000E+00
  0.00000000E+00  0.00000000E+00  0.00000000E+00
  0.00000000E+00  0.00000000E+00  0.00000000E+00
  0.00000000E+00  0.00000000E+00  0.00000000E+00
  0.00000000E+00  0.00000000E+00  0.00000000E+00
  0.00000000E+00  0.00000000E+00  0.00000000E+00
  0.00000000E+00  0.00000000E+00  0.00000000E+00
  0.00000000E+00  0.00000000E+00  0.00000000E+00
  0.00000000E+00  0.00000000E+00  0.00000000E+00
  0.00000000E+00  0.00000000E+00  0.00000000E+00
  0.00000000E+00  0.00000000E+00  0.00000000E+00
  0.00000000E+00  0.00000000E+00  0.00000000E+00
  0.00000000E+00  0.00000000E+00  0.00000000E+00
  0.00000000E+00  0.00000000E+00  0.00000000E+00
  0.00000000E+00  0.00000000E+00  0.00000000E+00
  0.00000000E+00  0.00000000E+00  0.00000000E+00
  0.00000000E+00  0.00000000E+00  0.00000000E+00
  0.00000000E+00  0.00000000E+00  0.00000000E+00
  0.00000000E+00  0.00000000E+00  0.00000000E+00
  0.00000000E+00  0.00000000E+00  0.00000000E+00
  0.00000000E+00  0.00000000E+00  0.00000000E+00
  0.00000000E+00  0.00000000E+00  0.00000000E+00
  0.00000000E+00  0.00000000E+00  0.00000000E+00
  0.00000000E+00  0.00000000E+00  0.00000000E+00
  0.00000000E+00  0.00000000E+00  0.00000000E+00
  0.00000000E+00  0.00000000E+00  0.00000000E+00
  0.00000000E+00  0.00000000E+00  0.00000000E+00
  0.00000000E+00  0.00000000E+00  0.00000000E+00
  0.00000000E+00  0.00000000E+00  0.00000000E+00
  0.00000000E+00  0.00000000E+00  0.00000000E+00
  0.00000000E+00  0.00000000E+00  0.00000000E+00
  0.00000000E+00  0.00000000E+00  0.00000000E+00
  0.00000000E+00  0.00000000E+00  0.00000000E+00
  0.00000000E+00  0.00000000E+00  0.00000000E+00
  0.00000000E+00  0.00000000E+00  0.00000000E+00
  0.00000000E+00  0.00000000E+00  0.00000000E+00
  0.00000000E+00  0.00000000E+00  0.00000000E+00
  0.00000000E+00  0.00000000E+00  0.00000000E+00
  0.00000000E+00  0.00000000E+00  0.00000000E+00
  0.00000000E+00  0.00000000E+00  0.00000000E+00
  0.00000000E+00  0.00000000E+00  0.00000000E+00
  0.00000000E+00  0.00000000E+00  0.00000000E+00
  0.00000000E+00  0.00000000E+00  0.00000000E+00
  0.00000000E+00  0.00000000E+00  0.00000000E+00
  0.00000000E+00  0.00000000E+00  0.00000000E+00
  0.00000000E+00  0.00000000E+00  0.00000000E+00
  0.00000000E+00  0.00000000E+00  0.00000000E+00
  0.00000000E+00  0.00000000E+00  0.00000000E+00
  0.00000000E+00  0.00000000E+00  0.00000000E+00
  0.00000000E+00  0.00000000E+00  0.00000000E+00
  0.00000000E+00  0.00000000E+00  0.00000000E+00
  0.00000000E+00  0.00000000E+00  0.00000000E+00
  0.00000000E+00  0.00000000E+00  0.00000000E+00
  0.00000000E+00  0.00000000E+00  0.00000000E+00
  0.00000000E+00  0.00000000E+00  0.00000000E+00
  0.00000000E+00  0.00000000E+00  0.00000000E+00
  0.00000000E+00  0.00000000E+00  0.00000000E+00
  0.00000000E+00  0.00000000E+00  0.00000000E+00
  0.00000000E+00  0.00000000E+00  0.00000000E+00
  0.00000000E+00  0.00000000E+00  0.00000000E+00
  0.00000000E+00  0.00000000E+00  0.00000000E+00
  0.00000000E+00  0.00000000E+00  0.00000000E+00
  0.00000000E+00  0.00000000E+00  0.00000000E+00
  0.00000000E+00  0.00000000E+00  0.00000000E+00
  0.00000000E+00  0.00000000E+00  0.00000000E+00
  0.00000000E+00  0.00000000E+00  0.00000000E+00
  0.00000000E+00  0.00000000E+00  0.00000000E+00
  0.00000000E+00  0.00000000E+00  0.00000000E+00
  0.00000000E+00  0.00000000E+00  0.00000000E+00
  0.00000000E+00  0.00000000E+00  0.00000000E+00
  0.00000000E+00  0.00000000E+00  0.00000000E+00
  0.00000000E+00  0.00000000E+00  0.00000000E+00
  0.00000000E+00  0.00000000E+00  0.00000000E+00
  0.00000000E+00  0.00000000E+00  0.00000000E+00
  0.00000000E+00  0.00000000E+00  0.00000000E+00
  0.00000000E+00  0.00000000E+00  0.00000000E+00
  0.00000000E+00  0.00000000E+00  0.00000000E+00
  0.00000000E+00  0.00000000E+00  0.00000000E+00
  0.00000000E+00  0.00000000E+00  0.00000000E+00
  0.00000000E+00  0.00000000E+00  0.00000000E+00
  0.00000000E+00  0.00000000E+00  0.00000000E+00
  0.00000000E+00  0.00000000E+00  0.00000000E+00
  0.00000000E+00  0.00000000E+00  0.00000000E+00
  0.00000000E+00  0.00000000E+00  0.00000000E+00
  0.00000000E+00  0.00000000E+00  0.00000000E+00
  0.00000000E+00  0.00000000E+00  0.00000000E+00
  0.00000000E+00  0.00000000E+00  0.00000000E+00
  0.00000000E+00  0.00000000E+00  0.00000000E+00
  0.00000000E+00  0.00000000E+00  0.00000000E+00
  0.00000000E+00  0.00000000E+00  0.00000000E+00
  0.00000000E+00  0.00000000E+00  0.00000000E+00
  0.00000000E+00  0.00000000E+00  0.00000000E+00
  0.00000000E+00  0.00000000E+00  0.00000000E+00
  0.00000000E+00  0.00000000E+00  0.00000000E+00
  0.00000000E+00  0.00000000E+00  0.00000000E+00
  0.00000000E+00  0.00000000E+00  0.00000000E+00
  0.00000000E+00  0.00000000E+00  0.00000000E+00
  0.00000000E+00  0.00000000E+00  0.00000000E+00
  0.00000000E+00  0.00000000E+00  0.00000000E+00
  0.00000000E+00  0.00000000E+00  0.00000000E+00
  0.00000000E+00  0.00000000E+00  0.00000000E+00
  0.00000000E+00  0.00000000E+00  0.00000000E+00
  0.00000000E+00  0.00000000E+00  0.00000000E+00
  0.00000000E+00  0.00000000E+00  0.00000000E+00
  0.00000000E+00  0.00000000E+00  0.00000000E+00
  0.00000000E+00  0.00000000E+00  0.00000000E+00
  0.00000000E+00  0.00000000E+00  0.00000000E+00
  0.00000000E+00  0.00000000E+00  0.00000000E+00
  0.00000000E+00  0.00000000E+00  0.00000000E+00
  0.00000000E+00  0.00000000E+00  0.00000000E+00
  0.00000000E+00  0.00000000E+00  0.00000000E+00
  0.00000000E+00  0.00000000E+00  0.00000000E+00
  0.00000000E+00  0.00000000E+00  0.00000000E+00
  0.00000000E+00  0.00000000E+00  0.00000000E+00
  0.00000000E+00  0.00000000E+00  0.00000000E+00
  0.00000000E+00  0.00000000E+00  0.00000000E+00
  0.00000000E+00  0.00000000E+00  0.00000000E+00
  0.00000000E+00  0.00000000E+00  0.00000000E+00
  0.00000000E+00  0.00000000E+00  0.00000000E+00
  0.00000000E+00  0.00000000E+00  0.00000000E+00
  0.00000000E+00  0.00000000E+00  0.00000000E+00
  0.00000000E+00  0.00000000E+00  0.00000000E+00
  0.00000000E+00  0.00000000E+00  0.00000000E+00
