Primitive Cell
  1.000000
    0.00000000000000    5.00449991225000    5.00449991225000
    5.00449991225000    0.00000000000000    5.00449991225000
    5.00449991225000    5.00449991225000    0.00000000000000
  Zn  Al  S 
   2   4   8
DIRECT
    0.2500000000000000    0.2500000000000000    0.2500000000000000    Zn1
    0.0000000000000000    0.0000000000000000    0.0000000000000000    Zn2
    0.6250000000000000    0.6250000000000000    0.6250000000000000    Al1
    0.6250000000000000    0.6250000000000000    0.1250000000000000    Al2
    0.6250000000000000    0.1250000000000000    0.6250000000000000    Al3
    0.1250000000000000    0.6250000000000000    0.6250000000000000    Al4
    0.3843288135505659    0.3843288135505658    0.3843288135505658     S1
    0.8656711864494342    0.8656711864494342    0.8656711864494342     S2
    0.3843288135505658    0.3843288135505658    0.8470135593483026     S3
    0.8656711864494342    0.8656711864494342    0.4029864406516974     S4
    0.3843288135505659    0.8470135593483026    0.3843288135505658     S5
    0.8656711864494342    0.4029864406516974    0.8656711864494342     S6
    0.8470135593483026    0.3843288135505658    0.3843288135505658     S7
    0.4029864406516974    0.8656711864494342    0.8656711864494342     S8
