System = fcc Si

ENCUT = 400
LCHARG = .TRUE. 
ISMEAR = -5      ! tetrahedron method
LORBIT = 11

LVHAR = .TRUE. 

NCORE = 12
KPAR = 3