slab reconstructed 2x1                  
   5.4437     
     2.0000000000000000    0.0000000000000000    0.0000000000000000
     0.0000000000000000    2.0000000000000000    0.0000000000000000
     0.0000000000000000    0.0000000000000000    7.0000000000000000
   Si 
   160
Direct
0.9434	0.0566	0.14958
-1.09918E-7	0.25	0.21938
0.1934	0.3066	0.14958
0.25	1	0.20878
0.375	0.125	0.24666
0.11589	0.13411	0.17674
0.125	0.375	0.253
0.36589	0.38411	0.17674
0.00232	0.99768	0.28572
1.68459E-5	0.24998	0.3567
0.25232	0.24768	0.28572
0.24998	2.02536E-5	0.35762
0.37498	0.12502	0.39316
0.12719	0.12281	0.32142
0.12501	0.37499	0.39258
0.37719	0.37281	0.32142
0.99982	1.79077E-4	0.42862
0.9998	0.2502	0.50007
0.24982	0.25018	0.42862
0.25019	0.99981	0.49998
0.37516	0.12484	0.53571
0.12479	0.12521	0.46434
0.12483	0.37517	0.53577
0.37479	0.37521	0.46434
1.35638E-5	0.99999	0.57117
0.00218	0.24782	0.64291
0.25001	0.24999	0.57117
0.24782	0.00218	0.64292
0.37269	0.12731	0.67862
0.12502	0.12498	0.60671
0.12732	0.37268	0.67861
0.37502	0.37498	0.60671
3.18985E-6	1	0.71767
0.99088	0.25912	0.7876
0.25	0.25	0.71767
0.25912	0.99088	0.7876
0.43161	0.06839	0.81477
0.125	0.125	0.75556
0.0684	0.4316	0.81477
0.375	0.375	0.75556
0.55661	0.94339	0.14958
0.5	0.25	0.20878
0.80661	0.19339	0.14958
0.75	1	0.21938
0.875	0.125	0.253
0.63411	0.11589	0.17674
0.625	0.375	0.24666
0.88411	0.36589	0.17674
0.49768	0.00232	0.28573
0.49998	0.25002	0.35762
0.74768	0.25232	0.28573
0.75002	0.99998	0.3567
0.87501	0.12499	0.39258
0.62281	0.12719	0.32142
0.62498	0.37502	0.39316
0.87281	0.37719	0.32142
0.50017	0.99983	0.42856
0.50019	0.24981	0.49998
0.75017	0.24983	0.42856
0.7498	2.00488E-4	0.50007
0.87483	0.12517	0.53577
0.62519	0.12481	0.46426
0.62516	0.37484	0.53571
0.87519	0.37481	0.46426
0.49998	1.80444E-5	0.57175
0.49782	0.25218	0.64292
0.74998	0.25002	0.57175
0.75218	0.99782	0.64291
0.87732	0.12268	0.67861
0.62498	0.12502	0.60763
0.62269	0.37731	0.67862
0.87498	0.37502	0.60763
0.50001	0.99999	0.71134
0.50912	0.24088	0.7876
0.75001	0.24999	0.71134
0.74088	0.00912	0.7876
0.8184	0.1816	0.81477
0.62501	0.12499	0.74496
0.68161	0.31839	0.81477
0.87501	0.37499	0.74496
0.05661	0.44339	0.14958
4.48431E-6	0.75	0.20878
0.30661	0.69339	0.14958
0.25	0.5	0.21938
0.375	0.625	0.253
0.13411	0.61589	0.17674
0.125	0.875	0.24666
0.38411	0.86589	0.17674
0.99768	0.50232	0.28573
0.99998	0.75002	0.35762
0.24768	0.75232	0.28573
0.25002	0.49998	0.3567
0.37501	0.62499	0.39258
0.12281	0.62719	0.32142
0.12498	0.87502	0.39316
0.37281	0.87719	0.32142
1.67729E-4	0.49983	0.42856
1.86832E-4	0.74981	0.49998
0.25017	0.74983	0.42856
0.2498	0.5002	0.50007
0.37483	0.62517	0.53577
0.12519	0.62481	0.46426
0.12516	0.87484	0.53571
0.37519	0.87481	0.46426
0.99998	0.50002	0.57175
0.99782	0.75218	0.64292
0.24998	0.75002	0.57175
0.25218	0.49782	0.64291
0.37732	0.62268	0.67861
0.12498	0.62502	0.60763
0.12269	0.87731	0.67862
0.37498	0.87502	0.60763
6.36928E-6	0.49999	0.71134
0.00912	0.74088	0.7876
0.25001	0.74999	0.71134
0.24088	0.50912	0.7876
0.3184	0.6816	0.81477
0.12501	0.62499	0.74496
0.18161	0.81839	0.81477
0.37501	0.87499	0.74496
0.4434	0.5566	0.14958
0.5	0.75	0.21938
0.6934	0.8066	0.14958
0.75	0.5	0.20878
0.875	0.625	0.24666
0.61589	0.63411	0.17674
0.625	0.875	0.253
0.86589	0.88411	0.17674
0.50232	0.49768	0.28572
0.50002	0.74998	0.3567
0.75232	0.74768	0.28572
0.74998	0.50002	0.35762
0.87498	0.62502	0.39316
0.62719	0.62281	0.32142
0.62501	0.87499	0.39258
0.87719	0.87281	0.32142
0.49982	0.50018	0.42862
0.4998	0.7502	0.50007
0.74982	0.75018	0.42862
0.75019	0.49981	0.49998
0.87516	0.62484	0.53571
0.62479	0.62521	0.46434
0.62483	0.87517	0.53577
0.87479	0.87521	0.46434
0.50001	0.49999	0.57117
0.50218	0.74782	0.64291
0.75001	0.74999	0.57117
0.74782	0.50218	0.64292
0.87269	0.62731	0.67862
0.62502	0.62498	0.60671
0.62732	0.87268	0.67861
0.87502	0.87498	0.60671
0.5	0.5	0.71767
0.49088	0.75912	0.7876
0.75	0.75	0.71767
0.75912	0.49088	0.7876
0.93161	0.56839	0.81477
0.625	0.625	0.75556
0.5684	0.9316	0.81477
0.875	0.875	0.75556

 
  0.00000000E+00  0.00000000E+00  0.00000000E+00
  0.00000000E+00  0.00000000E+00  0.00000000E+00
  0.00000000E+00  0.00000000E+00  0.00000000E+00
  0.00000000E+00  0.00000000E+00  0.00000000E+00
  0.00000000E+00  0.00000000E+00  0.00000000E+00
  0.00000000E+00  0.00000000E+00  0.00000000E+00
  0.00000000E+00  0.00000000E+00  0.00000000E+00
  0.00000000E+00  0.00000000E+00  0.00000000E+00
  0.00000000E+00  0.00000000E+00  0.00000000E+00
  0.00000000E+00  0.00000000E+00  0.00000000E+00
  0.00000000E+00  0.00000000E+00  0.00000000E+00
  0.00000000E+00  0.00000000E+00  0.00000000E+00
  0.00000000E+00  0.00000000E+00  0.00000000E+00
  0.00000000E+00  0.00000000E+00  0.00000000E+00
  0.00000000E+00  0.00000000E+00  0.00000000E+00
  0.00000000E+00  0.00000000E+00  0.00000000E+00
  0.00000000E+00  0.00000000E+00  0.00000000E+00
  0.00000000E+00  0.00000000E+00  0.00000000E+00
  0.00000000E+00  0.00000000E+00  0.00000000E+00
  0.00000000E+00  0.00000000E+00  0.00000000E+00
  0.00000000E+00  0.00000000E+00  0.00000000E+00
  0.00000000E+00  0.00000000E+00  0.00000000E+00
  0.00000000E+00  0.00000000E+00  0.00000000E+00
  0.00000000E+00  0.00000000E+00  0.00000000E+00
  0.00000000E+00  0.00000000E+00  0.00000000E+00
  0.00000000E+00  0.00000000E+00  0.00000000E+00
  0.00000000E+00  0.00000000E+00  0.00000000E+00
  0.00000000E+00  0.00000000E+00  0.00000000E+00
  0.00000000E+00  0.00000000E+00  0.00000000E+00
  0.00000000E+00  0.00000000E+00  0.00000000E+00
  0.00000000E+00  0.00000000E+00  0.00000000E+00
  0.00000000E+00  0.00000000E+00  0.00000000E+00
  0.00000000E+00  0.00000000E+00  0.00000000E+00
  0.00000000E+00  0.00000000E+00  0.00000000E+00
  0.00000000E+00  0.00000000E+00  0.00000000E+00
  0.00000000E+00  0.00000000E+00  0.00000000E+00
  0.00000000E+00  0.00000000E+00  0.00000000E+00
  0.00000000E+00  0.00000000E+00  0.00000000E+00
  0.00000000E+00  0.00000000E+00  0.00000000E+00
  0.00000000E+00  0.00000000E+00  0.00000000E+00
  0.00000000E+00  0.00000000E+00  0.00000000E+00
  0.00000000E+00  0.00000000E+00  0.00000000E+00
  0.00000000E+00  0.00000000E+00  0.00000000E+00
  0.00000000E+00  0.00000000E+00  0.00000000E+00
  0.00000000E+00  0.00000000E+00  0.00000000E+00
  0.00000000E+00  0.00000000E+00  0.00000000E+00
  0.00000000E+00  0.00000000E+00  0.00000000E+00
  0.00000000E+00  0.00000000E+00  0.00000000E+00
  0.00000000E+00  0.00000000E+00  0.00000000E+00
  0.00000000E+00  0.00000000E+00  0.00000000E+00
  0.00000000E+00  0.00000000E+00  0.00000000E+00
  0.00000000E+00  0.00000000E+00  0.00000000E+00
  0.00000000E+00  0.00000000E+00  0.00000000E+00
  0.00000000E+00  0.00000000E+00  0.00000000E+00
  0.00000000E+00  0.00000000E+00  0.00000000E+00
  0.00000000E+00  0.00000000E+00  0.00000000E+00
  0.00000000E+00  0.00000000E+00  0.00000000E+00
  0.00000000E+00  0.00000000E+00  0.00000000E+00
  0.00000000E+00  0.00000000E+00  0.00000000E+00
  0.00000000E+00  0.00000000E+00  0.00000000E+00
  0.00000000E+00  0.00000000E+00  0.00000000E+00
  0.00000000E+00  0.00000000E+00  0.00000000E+00
  0.00000000E+00  0.00000000E+00  0.00000000E+00
  0.00000000E+00  0.00000000E+00  0.00000000E+00
  0.00000000E+00  0.00000000E+00  0.00000000E+00
  0.00000000E+00  0.00000000E+00  0.00000000E+00
  0.00000000E+00  0.00000000E+00  0.00000000E+00
  0.00000000E+00  0.00000000E+00  0.00000000E+00
  0.00000000E+00  0.00000000E+00  0.00000000E+00
  0.00000000E+00  0.00000000E+00  0.00000000E+00
  0.00000000E+00  0.00000000E+00  0.00000000E+00
  0.00000000E+00  0.00000000E+00  0.00000000E+00
  0.00000000E+00  0.00000000E+00  0.00000000E+00
  0.00000000E+00  0.00000000E+00  0.00000000E+00
  0.00000000E+00  0.00000000E+00  0.00000000E+00
  0.00000000E+00  0.00000000E+00  0.00000000E+00
  0.00000000E+00  0.00000000E+00  0.00000000E+00
  0.00000000E+00  0.00000000E+00  0.00000000E+00
  0.00000000E+00  0.00000000E+00  0.00000000E+00
  0.00000000E+00  0.00000000E+00  0.00000000E+00
  0.00000000E+00  0.00000000E+00  0.00000000E+00
  0.00000000E+00  0.00000000E+00  0.00000000E+00
  0.00000000E+00  0.00000000E+00  0.00000000E+00
  0.00000000E+00  0.00000000E+00  0.00000000E+00
  0.00000000E+00  0.00000000E+00  0.00000000E+00
  0.00000000E+00  0.00000000E+00  0.00000000E+00
  0.00000000E+00  0.00000000E+00  0.00000000E+00
  0.00000000E+00  0.00000000E+00  0.00000000E+00
  0.00000000E+00  0.00000000E+00  0.00000000E+00
  0.00000000E+00  0.00000000E+00  0.00000000E+00
  0.00000000E+00  0.00000000E+00  0.00000000E+00
  0.00000000E+00  0.00000000E+00  0.00000000E+00
  0.00000000E+00  0.00000000E+00  0.00000000E+00
  0.00000000E+00  0.00000000E+00  0.00000000E+00
  0.00000000E+00  0.00000000E+00  0.00000000E+00
  0.00000000E+00  0.00000000E+00  0.00000000E+00
  0.00000000E+00  0.00000000E+00  0.00000000E+00
  0.00000000E+00  0.00000000E+00  0.00000000E+00
  0.00000000E+00  0.00000000E+00  0.00000000E+00
  0.00000000E+00  0.00000000E+00  0.00000000E+00
  0.00000000E+00  0.00000000E+00  0.00000000E+00
  0.00000000E+00  0.00000000E+00  0.00000000E+00
  0.00000000E+00  0.00000000E+00  0.00000000E+00
  0.00000000E+00  0.00000000E+00  0.00000000E+00
  0.00000000E+00  0.00000000E+00  0.00000000E+00
  0.00000000E+00  0.00000000E+00  0.00000000E+00
  0.00000000E+00  0.00000000E+00  0.00000000E+00
  0.00000000E+00  0.00000000E+00  0.00000000E+00
  0.00000000E+00  0.00000000E+00  0.00000000E+00
  0.00000000E+00  0.00000000E+00  0.00000000E+00
  0.00000000E+00  0.00000000E+00  0.00000000E+00
  0.00000000E+00  0.00000000E+00  0.00000000E+00
  0.00000000E+00  0.00000000E+00  0.00000000E+00
  0.00000000E+00  0.00000000E+00  0.00000000E+00
  0.00000000E+00  0.00000000E+00  0.00000000E+00
  0.00000000E+00  0.00000000E+00  0.00000000E+00
  0.00000000E+00  0.00000000E+00  0.00000000E+00
  0.00000000E+00  0.00000000E+00  0.00000000E+00
  0.00000000E+00  0.00000000E+00  0.00000000E+00
  0.00000000E+00  0.00000000E+00  0.00000000E+00
  0.00000000E+00  0.00000000E+00  0.00000000E+00
  0.00000000E+00  0.00000000E+00  0.00000000E+00
  0.00000000E+00  0.00000000E+00  0.00000000E+00
  0.00000000E+00  0.00000000E+00  0.00000000E+00
  0.00000000E+00  0.00000000E+00  0.00000000E+00
  0.00000000E+00  0.00000000E+00  0.00000000E+00
  0.00000000E+00  0.00000000E+00  0.00000000E+00
  0.00000000E+00  0.00000000E+00  0.00000000E+00
  0.00000000E+00  0.00000000E+00  0.00000000E+00
  0.00000000E+00  0.00000000E+00  0.00000000E+00
  0.00000000E+00  0.00000000E+00  0.00000000E+00
  0.00000000E+00  0.00000000E+00  0.00000000E+00
  0.00000000E+00  0.00000000E+00  0.00000000E+00
  0.00000000E+00  0.00000000E+00  0.00000000E+00
  0.00000000E+00  0.00000000E+00  0.00000000E+00
  0.00000000E+00  0.00000000E+00  0.00000000E+00
  0.00000000E+00  0.00000000E+00  0.00000000E+00
  0.00000000E+00  0.00000000E+00  0.00000000E+00
  0.00000000E+00  0.00000000E+00  0.00000000E+00
  0.00000000E+00  0.00000000E+00  0.00000000E+00
  0.00000000E+00  0.00000000E+00  0.00000000E+00
  0.00000000E+00  0.00000000E+00  0.00000000E+00
  0.00000000E+00  0.00000000E+00  0.00000000E+00
  0.00000000E+00  0.00000000E+00  0.00000000E+00
  0.00000000E+00  0.00000000E+00  0.00000000E+00
  0.00000000E+00  0.00000000E+00  0.00000000E+00
  0.00000000E+00  0.00000000E+00  0.00000000E+00
  0.00000000E+00  0.00000000E+00  0.00000000E+00
  0.00000000E+00  0.00000000E+00  0.00000000E+00
  0.00000000E+00  0.00000000E+00  0.00000000E+00
  0.00000000E+00  0.00000000E+00  0.00000000E+00
  0.00000000E+00  0.00000000E+00  0.00000000E+00
  0.00000000E+00  0.00000000E+00  0.00000000E+00
  0.00000000E+00  0.00000000E+00  0.00000000E+00
  0.00000000E+00  0.00000000E+00  0.00000000E+00
  0.00000000E+00  0.00000000E+00  0.00000000E+00
  0.00000000E+00  0.00000000E+00  0.00000000E+00
  0.00000000E+00  0.00000000E+00  0.00000000E+00
  0.00000000E+00  0.00000000E+00  0.00000000E+00
  0.00000000E+00  0.00000000E+00  0.00000000E+00
