slab reconstructed 2x1                  
   5.4437     
     2.0000000000000000    0.0000000000000000    0.0000000000000000
     0.0000000000000000    2.0000000000000000    0.0000000000000000
     0.0000000000000000    0.0000000000000000   10.0000000000000000
   Si 
   160
Direct
  0.9434005478787295  0.0565994521212704  0.2547057406846338
 -0.0000001099183363  0.2500001099183364  0.3035672490784916
  0.1934005478787296  0.3065994521212704  0.2547057406846338
  0.2500044843051141  0.9999955156948859  0.2961427274807916
  0.3750033741281683  0.1249966258718318  0.3226619441651024
  0.1158933339800605  0.1341066660199395  0.2737201236283642
  0.1249993576769418  0.3750006423230582  0.3270981449492760
  0.3658933339800605  0.3841066660199395  0.2737201236283642
  0.0023216921305056  0.9976783078694944  0.3500040471551570
  0.0000168459352541  0.2499831540647459  0.3996882470922773
  0.2523216921305055  0.2476783078694945  0.3500040471551570
  0.2499797463881555  0.0000202536118446  0.4003355645137769
  0.3749800129470974  0.1250199870529027  0.4252131182029361
  0.1271857096355499  0.1228142903644501  0.3749916357436751
  0.1250114712884901  0.3749885287115099  0.4248038977227711
  0.3771857096355499  0.3728142903644501  0.3749916357436751
  0.9998209231871644  0.0001790768128357  0.4500309548985755
  0.9997995123325014  0.2502004876674987  0.5000459051994582
  0.2498209231871643  0.2501790768128356  0.4500309548985755
  0.2501868323802012  0.9998131676197989  0.4999868760232072
  0.3751642954668625  0.1248357045331375  0.5249996456488165
  0.1247896349532574  0.1252103650467425  0.4750402823798112
  0.1248265331908251  0.3751734668091748  0.5250374876850661
  0.3747896349532575  0.3752103650467425  0.4750402823798112
  0.0000135638374152  0.9999864361625846  0.5498170477157667
  0.0021844272105007  0.2478155727894993  0.6000364589561987
  0.2500135638374152  0.2499864361625848  0.5498170477157667
  0.2478182453971860  0.0021817546028140  0.6000413908439675
  0.3726874481056797  0.1273125518943203  0.6250306995297870
  0.1250180633288202  0.1249819366711798  0.5746998836088436
  0.1273190677216065  0.3726809322783936  0.6250273002764469
  0.3750180633288202  0.3749819366711798  0.5746998836088436
  0.0000031898460313  0.9999968101539687  0.6523711482748553
  0.9908833371783780  0.2591166628216222  0.7013202656441572
  0.2500031898460314  0.2499968101539687  0.6523711482748553
  0.2591235219320984  0.9908764780679016  0.7013194164125693
  0.4316060412316550  0.0683939587683450  0.7203365348063753
  0.1250029754128326  0.1249970245871674  0.6788915682187296
  0.0684020374716191  0.4315979625283809  0.7203370059142357
  0.3750029754128327  0.3749970245871673  0.6788915682187296
  0.5566080387086016  0.9433919612913984  0.2547052000627852
  0.5000044843051141  0.2499955156948859  0.2961427274807916
  0.8066080387086016  0.1933919612913984  0.2547052000627852
  0.7499998900816637  1.0000001099183433  0.3035672490784916
  0.8749993576769418  0.1250006423230582  0.3270981449492760
  0.6341131505279288  0.1158868494720713  0.2737192378277585
  0.6250033741281682  0.3749966258718317  0.3226619441651024
  0.8841131505279288  0.3658868494720715  0.2737192378277585
  0.4976807206675958  0.0023192793324043  0.3500077786556898
  0.4999797463881555  0.2500202536118445  0.4003355645137769
  0.7476807206675958  0.2523192793324042  0.3500077786556898
  0.7500168459352542  0.9999831540647458  0.3996882470922773
  0.8750114712884901  0.1249885287115099  0.4248038977227711
  0.6228133831377425  0.1271866168622575  0.3749972492206953
  0.6249800129470972  0.3750199870529026  0.4252131182029361
  0.8728133831377425  0.3771866168622575  0.3749972492206953
  0.5001677291001083  0.9998322708998917  0.4499944458590179
  0.5001868323802011  0.2498131676197987  0.4999868760232072
  0.7501677291001083  0.2498322708998916  0.4499944458590179
  0.7497995123325014  0.0002004876674988  0.5000459051994582
  0.8748265331908250  0.1251734668091749  0.5250374876850661
  0.6251937039940599  0.1248062960059402  0.4749846020667497
  0.6251642954668627  0.3748357045331375  0.5249996456488165
  0.8751937039940599  0.3748062960059402  0.4749846020667497
  0.4999819556064308  0.0000180443935692  0.5502255094522608
  0.4978182453971861  0.2521817546028139  0.6000413908439675
  0.7499819556064307  0.2500180443935692  0.5502255094522608
  0.7521844272104936  0.9978155727894993  0.6000364589561987
  0.8773190677216065  0.1226809322783934  0.6250273002764469
  0.6249810416186341  0.1250189583813658  0.5753424170024509
  0.6226874481056797  0.3773125518943203  0.6250306995297870
  0.8749810416186341  0.3750189583813657  0.5753424170024509
  0.5000063692810129  0.9999936307189871  0.6479395081620342
  0.5091235219320984  0.2408764780679015  0.7013194164125693
  0.7500063692810129  0.2499936307189869  0.6479395081620342
  0.7408833371783780  0.0091166628216221  0.7013202656441572
  0.8184020374716190  0.1815979625283809  0.7203370059142357
  0.6250071322594147  0.1249928677405854  0.6714708832633226
  0.6816060412316550  0.3183939587683450  0.7203365348063753
  0.8750071322594147  0.3749928677405854  0.6714708832633226
  0.0566080387086016  0.4433919612913984  0.2547052000627852
  0.0000044843051141  0.7499955156948859  0.2961427274807916
  0.3066080387086016  0.6933919612913984  0.2547052000627852
  0.2499998900816637  0.5000001099183363  0.3035672490784916
  0.3749993576769418  0.6250006423230582  0.3270981449492760
  0.1341131505279286  0.6158868494720712  0.2737192378277585
  0.1250033741281683  0.8749966258718318  0.3226619441651024
  0.3841131505279285  0.8658868494720712  0.2737192378277585
  0.9976807206675958  0.5023192793324042  0.3500077786556898
  0.9999797463881555  0.7500202536118445  0.4003355645137769
  0.2476807206675957  0.7523192793324042  0.3500077786556898
  0.2500168459352541  0.4999831540647459  0.3996882470922773
  0.3750114712884901  0.6249885287115099  0.4248038977227711
  0.1228133831377425  0.6271866168622575  0.3749972492206953
  0.1249800129470973  0.8750199870529028  0.4252131182029361
  0.3728133831377425  0.8771866168622575  0.3749972492206953
  0.0001677291001084  0.4998322708998916  0.4499944458590179
  0.0001868323802012  0.7498131676197989  0.4999868760232072
  0.2501677291001084  0.7498322708998917  0.4499944458590179
  0.2497995123325012  0.5002004876674986  0.5000459051994582
  0.3748265331908252  0.6251734668091750  0.5250374876850661
  0.1251937039940598  0.6248062960059401  0.4749846020667497
  0.1251642954668625  0.8748357045331373  0.5249996456488165
  0.3751937039940598  0.8748062960059401  0.4749846020667497
  0.9999819556064307  0.5000180443935693  0.5502255094522608
  0.9978182453971860  0.7521817546028140  0.6000413908439675
  0.2499819556064307  0.7500180443935693  0.5502255094522608
  0.2521844272105007  0.4978155727894993  0.6000364589561987
  0.3773190677216064  0.6226809322783935  0.6250273002764469
  0.1249810416186342  0.6250189583813659  0.5753424170024509
  0.1226874481056797  0.8773125518943203  0.6250306995297870
  0.3749810416186343  0.8750189583813659  0.5753424170024509
  0.0000063692810131  0.4999936307189868  0.6479395081620342
  0.0091235219320985  0.7408764780679016  0.7013194164125693
  0.2500063692810132  0.7499936307189871  0.6479395081620342
  0.2408833371783780  0.5091166628216220  0.7013202656441572
  0.3184020374716191  0.6815979625283810  0.7203370059142357
  0.1250071322594146  0.6249928677405853  0.6714708832633226
  0.1816060412316550  0.8183939587683450  0.7203365348063753
  0.3750071322594146  0.8749928677405853  0.6714708832633226
  0.4434005478787296  0.5565994521212705  0.2547057406846338
  0.4999998900816637  0.7500001099183363  0.3035672490784916
  0.6934005478787295  0.8065994521212705  0.2547057406846338
  0.7500044843051141  0.4999955156948859  0.2961427274807916
  0.8750033741281682  0.6249966258718318  0.3226619441651024
  0.6158933339800605  0.6341066660199395  0.2737201236283642
  0.6249993576769418  0.8750006423230582  0.3270981449492760
  0.8658933339800605  0.8841066660199395  0.2737201236283642
  0.5023216921305056  0.4976783078694945  0.3500040471551570
  0.5000168459352542  0.7499831540647458  0.3996882470922773
  0.7523216921305056  0.7476783078694944  0.3500040471551570
  0.7499797463881555  0.5000202536118445  0.4003355645137769
  0.8749800129470972  0.6250199870529028  0.4252131182029361
  0.6271857096355571  0.6228142903644429  0.3749916357436751
  0.6250114712884901  0.8749885287115099  0.4248038977227711
  0.8771857096355571  0.8728142903644429  0.3749916357436751
  0.4998209231871644  0.5001790768128356  0.4500309548985755
  0.4997995123325013  0.7502004876674986  0.5000459051994582
  0.7498209231871644  0.7501790768128356  0.4500309548985755
  0.7501868323802011  0.4998131676197988  0.4999868760232072
  0.8751642954668627  0.6248357045331373  0.5249996456488165
  0.6247896349532575  0.6252103650467425  0.4750402823798112
  0.6248265331908250  0.8751734668091750  0.5250374876850661
  0.8747896349532575  0.8752103650467425  0.4750402823798112
  0.5000135638374154  0.4999864361625847  0.5498170477157667
  0.5021844272105007  0.7478155727895064  0.6000364589561987
  0.7500135638374154  0.7499864361625846  0.5498170477157667
  0.7478182453971860  0.5021817546028140  0.6000413908439675
  0.8726874481056797  0.6273125518943203  0.6250306995297870
  0.6250180633288203  0.6249819366711797  0.5746998836088436
  0.6273190677216065  0.8726809322783935  0.6250273002764469
  0.8750180633288203  0.8749819366711797  0.5746998836088436
  0.5000031898460313  0.4999968101539686  0.6523711482748553
  0.4908833371783778  0.7591166628216220  0.7013202656441572
  0.7500031898460242  0.7499968101539758  0.6523711482748553
  0.7591235219320984  0.4908764780679016  0.7013194164125693
  0.9316060412316550  0.5683939587683450  0.7203365348063753
  0.6250029754128397  0.6249970245871603  0.6788915682187296
  0.5684020374716190  0.9315979625283810  0.7203370059142357
  0.8750029754128397  0.8749970245871603  0.6788915682187296
 
  0.00000000E+00  0.00000000E+00  0.00000000E+00
  0.00000000E+00  0.00000000E+00  0.00000000E+00
  0.00000000E+00  0.00000000E+00  0.00000000E+00
  0.00000000E+00  0.00000000E+00  0.00000000E+00
  0.00000000E+00  0.00000000E+00  0.00000000E+00
  0.00000000E+00  0.00000000E+00  0.00000000E+00
  0.00000000E+00  0.00000000E+00  0.00000000E+00
  0.00000000E+00  0.00000000E+00  0.00000000E+00
  0.00000000E+00  0.00000000E+00  0.00000000E+00
  0.00000000E+00  0.00000000E+00  0.00000000E+00
  0.00000000E+00  0.00000000E+00  0.00000000E+00
  0.00000000E+00  0.00000000E+00  0.00000000E+00
  0.00000000E+00  0.00000000E+00  0.00000000E+00
  0.00000000E+00  0.00000000E+00  0.00000000E+00
  0.00000000E+00  0.00000000E+00  0.00000000E+00
  0.00000000E+00  0.00000000E+00  0.00000000E+00
  0.00000000E+00  0.00000000E+00  0.00000000E+00
  0.00000000E+00  0.00000000E+00  0.00000000E+00
  0.00000000E+00  0.00000000E+00  0.00000000E+00
  0.00000000E+00  0.00000000E+00  0.00000000E+00
  0.00000000E+00  0.00000000E+00  0.00000000E+00
  0.00000000E+00  0.00000000E+00  0.00000000E+00
  0.00000000E+00  0.00000000E+00  0.00000000E+00
  0.00000000E+00  0.00000000E+00  0.00000000E+00
  0.00000000E+00  0.00000000E+00  0.00000000E+00
  0.00000000E+00  0.00000000E+00  0.00000000E+00
  0.00000000E+00  0.00000000E+00  0.00000000E+00
  0.00000000E+00  0.00000000E+00  0.00000000E+00
  0.00000000E+00  0.00000000E+00  0.00000000E+00
  0.00000000E+00  0.00000000E+00  0.00000000E+00
  0.00000000E+00  0.00000000E+00  0.00000000E+00
  0.00000000E+00  0.00000000E+00  0.00000000E+00
  0.00000000E+00  0.00000000E+00  0.00000000E+00
  0.00000000E+00  0.00000000E+00  0.00000000E+00
  0.00000000E+00  0.00000000E+00  0.00000000E+00
  0.00000000E+00  0.00000000E+00  0.00000000E+00
  0.00000000E+00  0.00000000E+00  0.00000000E+00
  0.00000000E+00  0.00000000E+00  0.00000000E+00
  0.00000000E+00  0.00000000E+00  0.00000000E+00
  0.00000000E+00  0.00000000E+00  0.00000000E+00
  0.00000000E+00  0.00000000E+00  0.00000000E+00
  0.00000000E+00  0.00000000E+00  0.00000000E+00
  0.00000000E+00  0.00000000E+00  0.00000000E+00
  0.00000000E+00  0.00000000E+00  0.00000000E+00
  0.00000000E+00  0.00000000E+00  0.00000000E+00
  0.00000000E+00  0.00000000E+00  0.00000000E+00
  0.00000000E+00  0.00000000E+00  0.00000000E+00
  0.00000000E+00  0.00000000E+00  0.00000000E+00
  0.00000000E+00  0.00000000E+00  0.00000000E+00
  0.00000000E+00  0.00000000E+00  0.00000000E+00
  0.00000000E+00  0.00000000E+00  0.00000000E+00
  0.00000000E+00  0.00000000E+00  0.00000000E+00
  0.00000000E+00  0.00000000E+00  0.00000000E+00
  0.00000000E+00  0.00000000E+00  0.00000000E+00
  0.00000000E+00  0.00000000E+00  0.00000000E+00
  0.00000000E+00  0.00000000E+00  0.00000000E+00
  0.00000000E+00  0.00000000E+00  0.00000000E+00
  0.00000000E+00  0.00000000E+00  0.00000000E+00
  0.00000000E+00  0.00000000E+00  0.00000000E+00
  0.00000000E+00  0.00000000E+00  0.00000000E+00
  0.00000000E+00  0.00000000E+00  0.00000000E+00
  0.00000000E+00  0.00000000E+00  0.00000000E+00
  0.00000000E+00  0.00000000E+00  0.00000000E+00
  0.00000000E+00  0.00000000E+00  0.00000000E+00
  0.00000000E+00  0.00000000E+00  0.00000000E+00
  0.00000000E+00  0.00000000E+00  0.00000000E+00
  0.00000000E+00  0.00000000E+00  0.00000000E+00
  0.00000000E+00  0.00000000E+00  0.00000000E+00
  0.00000000E+00  0.00000000E+00  0.00000000E+00
  0.00000000E+00  0.00000000E+00  0.00000000E+00
  0.00000000E+00  0.00000000E+00  0.00000000E+00
  0.00000000E+00  0.00000000E+00  0.00000000E+00
  0.00000000E+00  0.00000000E+00  0.00000000E+00
  0.00000000E+00  0.00000000E+00  0.00000000E+00
  0.00000000E+00  0.00000000E+00  0.00000000E+00
  0.00000000E+00  0.00000000E+00  0.00000000E+00
  0.00000000E+00  0.00000000E+00  0.00000000E+00
  0.00000000E+00  0.00000000E+00  0.00000000E+00
  0.00000000E+00  0.00000000E+00  0.00000000E+00
  0.00000000E+00  0.00000000E+00  0.00000000E+00
  0.00000000E+00  0.00000000E+00  0.00000000E+00
  0.00000000E+00  0.00000000E+00  0.00000000E+00
  0.00000000E+00  0.00000000E+00  0.00000000E+00
  0.00000000E+00  0.00000000E+00  0.00000000E+00
  0.00000000E+00  0.00000000E+00  0.00000000E+00
  0.00000000E+00  0.00000000E+00  0.00000000E+00
  0.00000000E+00  0.00000000E+00  0.00000000E+00
  0.00000000E+00  0.00000000E+00  0.00000000E+00
  0.00000000E+00  0.00000000E+00  0.00000000E+00
  0.00000000E+00  0.00000000E+00  0.00000000E+00
  0.00000000E+00  0.00000000E+00  0.00000000E+00
  0.00000000E+00  0.00000000E+00  0.00000000E+00
  0.00000000E+00  0.00000000E+00  0.00000000E+00
  0.00000000E+00  0.00000000E+00  0.00000000E+00
  0.00000000E+00  0.00000000E+00  0.00000000E+00
  0.00000000E+00  0.00000000E+00  0.00000000E+00
  0.00000000E+00  0.00000000E+00  0.00000000E+00
  0.00000000E+00  0.00000000E+00  0.00000000E+00
  0.00000000E+00  0.00000000E+00  0.00000000E+00
  0.00000000E+00  0.00000000E+00  0.00000000E+00
  0.00000000E+00  0.00000000E+00  0.00000000E+00
  0.00000000E+00  0.00000000E+00  0.00000000E+00
  0.00000000E+00  0.00000000E+00  0.00000000E+00
  0.00000000E+00  0.00000000E+00  0.00000000E+00
  0.00000000E+00  0.00000000E+00  0.00000000E+00
  0.00000000E+00  0.00000000E+00  0.00000000E+00
  0.00000000E+00  0.00000000E+00  0.00000000E+00
  0.00000000E+00  0.00000000E+00  0.00000000E+00
  0.00000000E+00  0.00000000E+00  0.00000000E+00
  0.00000000E+00  0.00000000E+00  0.00000000E+00
  0.00000000E+00  0.00000000E+00  0.00000000E+00
  0.00000000E+00  0.00000000E+00  0.00000000E+00
  0.00000000E+00  0.00000000E+00  0.00000000E+00
  0.00000000E+00  0.00000000E+00  0.00000000E+00
  0.00000000E+00  0.00000000E+00  0.00000000E+00
  0.00000000E+00  0.00000000E+00  0.00000000E+00
  0.00000000E+00  0.00000000E+00  0.00000000E+00
  0.00000000E+00  0.00000000E+00  0.00000000E+00
  0.00000000E+00  0.00000000E+00  0.00000000E+00
  0.00000000E+00  0.00000000E+00  0.00000000E+00
  0.00000000E+00  0.00000000E+00  0.00000000E+00
  0.00000000E+00  0.00000000E+00  0.00000000E+00
  0.00000000E+00  0.00000000E+00  0.00000000E+00
  0.00000000E+00  0.00000000E+00  0.00000000E+00
  0.00000000E+00  0.00000000E+00  0.00000000E+00
  0.00000000E+00  0.00000000E+00  0.00000000E+00
  0.00000000E+00  0.00000000E+00  0.00000000E+00
  0.00000000E+00  0.00000000E+00  0.00000000E+00
  0.00000000E+00  0.00000000E+00  0.00000000E+00
  0.00000000E+00  0.00000000E+00  0.00000000E+00
  0.00000000E+00  0.00000000E+00  0.00000000E+00
  0.00000000E+00  0.00000000E+00  0.00000000E+00
  0.00000000E+00  0.00000000E+00  0.00000000E+00
  0.00000000E+00  0.00000000E+00  0.00000000E+00
  0.00000000E+00  0.00000000E+00  0.00000000E+00
  0.00000000E+00  0.00000000E+00  0.00000000E+00
  0.00000000E+00  0.00000000E+00  0.00000000E+00
  0.00000000E+00  0.00000000E+00  0.00000000E+00
  0.00000000E+00  0.00000000E+00  0.00000000E+00
  0.00000000E+00  0.00000000E+00  0.00000000E+00
  0.00000000E+00  0.00000000E+00  0.00000000E+00
  0.00000000E+00  0.00000000E+00  0.00000000E+00
  0.00000000E+00  0.00000000E+00  0.00000000E+00
  0.00000000E+00  0.00000000E+00  0.00000000E+00
  0.00000000E+00  0.00000000E+00  0.00000000E+00
  0.00000000E+00  0.00000000E+00  0.00000000E+00
  0.00000000E+00  0.00000000E+00  0.00000000E+00
  0.00000000E+00  0.00000000E+00  0.00000000E+00
  0.00000000E+00  0.00000000E+00  0.00000000E+00
  0.00000000E+00  0.00000000E+00  0.00000000E+00
  0.00000000E+00  0.00000000E+00  0.00000000E+00
  0.00000000E+00  0.00000000E+00  0.00000000E+00
  0.00000000E+00  0.00000000E+00  0.00000000E+00
  0.00000000E+00  0.00000000E+00  0.00000000E+00
  0.00000000E+00  0.00000000E+00  0.00000000E+00
  0.00000000E+00  0.00000000E+00  0.00000000E+00
  0.00000000E+00  0.00000000E+00  0.00000000E+00
  0.00000000E+00  0.00000000E+00  0.00000000E+00
  0.00000000E+00  0.00000000E+00  0.00000000E+00
  0.00000000E+00  0.00000000E+00  0.00000000E+00
