Primitive Cell
  1.000000
    1.93369996549130    1.11642219560837   12.33566665650000
   -1.93369996549130    1.11642219560837   12.33566665650000
    0.00000000000000   -2.23284439121674   12.33566665650000
  In  Zn  S 
   2   1   3
DIRECT
    0.0000000000000000    0.0000000000000000    0.0000000000000000    In1
    0.2295600026867816    0.2295600026867816    0.2295600026867816    In2
    0.7704399973132183    0.7704399973132184    0.7704399973132184    Zn1
    0.8740700036323024    0.8740700036323025    0.8740700036323025     S1
    0.1259299963676975    0.1259299963676975    0.1259299963676975     S2
    0.2962200145052609    0.2962200145052609    0.2962200145052609     S3
