Primitive Cell                          
   1.00000000000000     
     0.0000000000000000    5.2950000763000000    5.2950000763000000
     5.2950000763000000    0.0000000000000000    5.2950000763000000
     5.2950000763000000    5.2950000763000000    0.0000000000000000
   Zn   In   S 
     2     4     8
Direct
  0.0000000000000000  0.0000000000000000  0.0000000000000000
  0.2500000000000000  0.2500000000000000  0.2500000000000000
  0.6250088333849106  0.6250088333849106  0.6250088333849106
  0.6250088333849106  0.6250088333849106  0.1249734998452681
  0.6250088333849106  0.1249734998452681  0.6250088333849106
  0.1249734998452681  0.6250088333849106  0.6250088333849106
  0.3785720134667017  0.3785720134667017  0.3785720134667017
  0.3785720134667017  0.3785720134667017  0.8642839595998879
  0.3785720134667017  0.8642839595998879  0.3785720134667017
  0.8642839595998879  0.3785720134667017  0.3785720134667017
  0.8714230830917344  0.8714230830917344  0.3857307507247896
  0.8714230830917344  0.8714230830917344  0.8714230830917344
  0.8714230830917344  0.3857307507247896  0.8714230830917344
  0.3857307507247896  0.8714230830917344  0.8714230830917344
 
  0.00000000E+00  0.00000000E+00  0.00000000E+00
  0.00000000E+00  0.00000000E+00  0.00000000E+00
  0.00000000E+00  0.00000000E+00  0.00000000E+00
  0.00000000E+00  0.00000000E+00  0.00000000E+00
  0.00000000E+00  0.00000000E+00  0.00000000E+00
  0.00000000E+00  0.00000000E+00  0.00000000E+00
  0.00000000E+00  0.00000000E+00  0.00000000E+00
  0.00000000E+00  0.00000000E+00  0.00000000E+00
  0.00000000E+00  0.00000000E+00  0.00000000E+00
  0.00000000E+00  0.00000000E+00  0.00000000E+00
  0.00000000E+00  0.00000000E+00  0.00000000E+00
  0.00000000E+00  0.00000000E+00  0.00000000E+00
  0.00000000E+00  0.00000000E+00  0.00000000E+00
  0.00000000E+00  0.00000000E+00  0.00000000E+00
