Primitive Cell                          
   1.00000000000000     
     1.9462728201877504    1.1236807058287848   12.2637537972647515
    -1.9462720319988189    1.1236807088329148   12.2637536398294493
     0.0000004146020997   -2.2473620309577909   12.2637537575788791
   Zn   In   S 
     1     2     4
Direct
  0.3916264132516509  0.3916264673625827  0.3916263944240277
  0.1618675972765575  0.1618675905727117  0.1618676039077665
  0.9370947330965695  0.9370946836046982  0.9370947409561809
  0.0438226930977638  0.0438227212690912  0.0438226703942606
  0.2995088840109064  0.2995088925759337  0.2995089000193726
  0.4610699855964285  0.4610699679470527  0.4610699891943650
  0.8704096936701285  0.8704096766679350  0.8704097011040316
 
  0.00000000E+00  0.00000000E+00  0.00000000E+00
  0.00000000E+00  0.00000000E+00  0.00000000E+00
  0.00000000E+00  0.00000000E+00  0.00000000E+00
  0.00000000E+00  0.00000000E+00  0.00000000E+00
  0.00000000E+00  0.00000000E+00  0.00000000E+00
  0.00000000E+00  0.00000000E+00  0.00000000E+00
  0.00000000E+00  0.00000000E+00  0.00000000E+00
