K-Spacing Value to Generate K-Mesh: 0.040
0
Gamma
   15   15   15
0.0  0.0  0.0
