SYSTEM = PDOS-Calculation-from-SCF
ISTART = 0
ICHARG = 11

# Electronic Parameters
ENCUT = 500.0
ISMEAR = -5       # Tetrahedron method
SIGMA = 0.05
LREAL = .FALSE.
PREC = Accurate
EDIFF = 1E-07
NELM = 100
ALGO = Normal
IBRION= -1
LASPH = .TRUE

# Parallelization
NCORE = 9

# Magnetic Properties
ISPIN = 1
#MAGMOM = 66*0.6 4*0.6 1*5.0

# DOS Settings
LORBIT = 11
EMIN = -5
EMAX = 5
NEDOS = 5000

# I/O Settings
LWAVE = .FALSE.
LCHARG = .TRUE.
LVTOT  = .TRUE.
ADDGRID= .TRUE.