K-Spacing Value to Generate K-Mesh: 0.030
0
Gamma
  25  25  25
0.0  0.0  0.0
