Primitive Cell                          
   1.00000000000000     
     1.9467325717862756    1.1239465334312266   12.2577056531295288
    -1.9467325669219309    1.1239465192905385   12.2577056201664742
     0.0000000018739837   -2.2478932129439784   12.2577056302589469
   Zn   In   S 
     1     2     4
Direct
  0.3917395360181637  0.3917395660112590  0.3917395158606219
  0.1617853109627089  0.1617853033157050  0.1617853154730787
  0.9371296975011868  0.9371296820736141  0.9371297102434710
  0.0438217755167753  0.0438218107374954  0.0438217562983792
  0.2995323702829235  0.2995323499248791  0.2995323807405510
  0.4610157303409870  0.4610157042613010  0.4610157329351887
  0.8703755793772601  0.8703755836757587  0.8703755884487222
 
  0.00000000E+00  0.00000000E+00  0.00000000E+00
  0.00000000E+00  0.00000000E+00  0.00000000E+00
  0.00000000E+00  0.00000000E+00  0.00000000E+00
  0.00000000E+00  0.00000000E+00  0.00000000E+00
  0.00000000E+00  0.00000000E+00  0.00000000E+00
  0.00000000E+00  0.00000000E+00  0.00000000E+00
  0.00000000E+00  0.00000000E+00  0.00000000E+00
