K-Path Generated by VASPKIT.
   20
Line-Mode
Reciprocal
   0.0000000000   0.0000000000   0.0000000000     GAMMA          
   0.5000000000   0.5000000000   0.5000000000     T              
 
   0.5000000000   0.5000000000   0.5000000000     T              
   0.8277282548   0.1722717452   0.5000000000     H_2            
 
   0.5000000000  -0.1722717452   0.1722717452     H_0            
   0.5000000000   0.0000000000   0.0000000000     L              
 
   0.5000000000   0.0000000000   0.0000000000     L              
   0.0000000000   0.0000000000   0.0000000000     GAMMA          
 
   0.0000000000   0.0000000000   0.0000000000     GAMMA          
   0.3361358726  -0.3361358726   0.0000000000     S_0            
 
   0.6638641274   0.0000000000   0.3361358726     S_2            
   0.5000000000   0.0000000000   0.5000000000     F              
 
   0.5000000000   0.0000000000   0.5000000000     F              
   0.0000000000   0.0000000000   0.0000000000     GAMMA          
 
