zinc dialuminium sulfide                
   1.00000000000000     
    10.0089998245000000    0.0000000000000000    0.0000000000000000
     0.0000000000000000   10.0089998245000000    0.0000000000000000
     0.0000000000000000    0.0000000000000000   10.0089998245000000
   Zn   Al   S 
     8    16    32
Direct
  0.1250000059776966  0.1250000061452425  0.1250000064331260
  0.8750000061976309  0.8750000064859194  0.8750000060380643
  0.6249999938503450  0.1250000061224341  0.6249999940344182
  0.3749999938516027  0.8750000062456067  0.3749999937398201
  0.1250000061358563  0.6249999939667674  0.6249999940229785
  0.8750000059676211  0.3749999936434136  0.3749999940498299
  0.6249999937873056  0.6249999941689808  0.1250000063534316
  0.3749999940037227  0.3749999936264672  0.8750000060621304
  0.5000000017761081  0.5000000017256312  0.5000000015241710
  0.2500000001616485  0.7499999999497149  0.9999999984391437
  0.7499999996245492  0.2499999995687148  0.9999999982242542
  0.7499999997553672  0.9999999987610906  0.2499999994800746
  0.2499999997111715  0.9999999985417460  0.7500000002600515
  0.9999999985712122  0.2499999997336317  0.7499999998338112
  0.9999999986220800  0.7500000000485372  0.2500000000560121
  0.5000000016127473  0.9999999988597565  0.9999999986204529
  0.2499999992938555  0.2500000000446505  0.5000000017135733
  0.7499999997291695  0.7499999995638689  0.5000000014920118
  0.7499999998739000  0.5000000014825190  0.7499999999352340
  0.2500000000910845  0.5000000017939001  0.2499999998615507
  0.9999999986011900  0.5000000014692105  0.9999999982278993
  0.5000000016633592  0.2499999999528342  0.2499999995033377
  0.5000000014048354  0.7499999999387299  0.7500000001014513
  0.9999999989209201  0.9999999992696615  0.5000000015312978
  0.2593288176835244  0.2593288161317773  0.2593288165745022
  0.7406711866943354  0.7406711909672694  0.7406711892688449
  0.4906711789006550  0.9906711894233808  0.7593288076721478
  0.5093288033988017  0.0093288220197465  0.2406711792473359
  0.9906711930483922  0.7593288068127819  0.4906711763273819
  0.0093288197280188  0.2406711788821099  0.5093288055315170
  0.7593288084732350  0.4906711782283111  0.9906711943686375
  0.2406711778382373  0.5093288034837258  0.0093288192625209
  0.0093288194513406  0.5093288062838255  0.2406711788017759
  0.9906711929877403  0.4906711765398128  0.7593288087359440
  0.5093288045775850  0.2406711785834545  0.0093288208476352
  0.4906711786958127  0.7593288088363295  0.9906711904054433
  0.2406711803211294  0.0093288191209808  0.5093288035814680
  0.7593288070813031  0.9906711922837559  0.4906711784532263
  0.2593288248701029  0.7593288059420331  0.7593288065494193
  0.7406711947216635  0.2406711813610514  0.2406711799692758
  0.4906711853501520  0.4906711835063504  0.2593288162494787
  0.5093288121687038  0.5093288136781311  0.7406711863425670
  0.9906711910623187  0.2593288262583684  0.9906711894145630
  0.0093288172988721  0.7406711954139027  0.0093288202234589
  0.0093288173815296  0.0093288196581227  0.7406711966979103
  0.9906711919824929  0.9906711896889178  0.2593288257348689
  0.5093288117914483  0.7406711885104897  0.5093288145841015
  0.4906711849241887  0.2593288152404725  0.4906711837911644
  0.7593288095547663  0.2593288219118506  0.7593288079639819
  0.2406711770197703  0.7406711970780151  0.2406711809059345
  0.2593288159926246  0.4906711860285924  0.4906711852621441
  0.7406711873585792  0.5093288120568502  0.5093288118962747
  0.7406711960307462  0.0093288178810411  0.0093288163565433
  0.2593288264451630  0.9906711916341635  0.9906711916666637
  0.7593288092330113  0.7593288050011111  0.2593288223306516
  0.2406711790484763  0.2406711807439592  0.7406711957442127
 
  0.00000000E+00  0.00000000E+00  0.00000000E+00
  0.00000000E+00  0.00000000E+00  0.00000000E+00
  0.00000000E+00  0.00000000E+00  0.00000000E+00
  0.00000000E+00  0.00000000E+00  0.00000000E+00
  0.00000000E+00  0.00000000E+00  0.00000000E+00
  0.00000000E+00  0.00000000E+00  0.00000000E+00
  0.00000000E+00  0.00000000E+00  0.00000000E+00
  0.00000000E+00  0.00000000E+00  0.00000000E+00
  0.00000000E+00  0.00000000E+00  0.00000000E+00
  0.00000000E+00  0.00000000E+00  0.00000000E+00
  0.00000000E+00  0.00000000E+00  0.00000000E+00
  0.00000000E+00  0.00000000E+00  0.00000000E+00
  0.00000000E+00  0.00000000E+00  0.00000000E+00
  0.00000000E+00  0.00000000E+00  0.00000000E+00
  0.00000000E+00  0.00000000E+00  0.00000000E+00
  0.00000000E+00  0.00000000E+00  0.00000000E+00
  0.00000000E+00  0.00000000E+00  0.00000000E+00
  0.00000000E+00  0.00000000E+00  0.00000000E+00
  0.00000000E+00  0.00000000E+00  0.00000000E+00
  0.00000000E+00  0.00000000E+00  0.00000000E+00
  0.00000000E+00  0.00000000E+00  0.00000000E+00
  0.00000000E+00  0.00000000E+00  0.00000000E+00
  0.00000000E+00  0.00000000E+00  0.00000000E+00
  0.00000000E+00  0.00000000E+00  0.00000000E+00
  0.00000000E+00  0.00000000E+00  0.00000000E+00
  0.00000000E+00  0.00000000E+00  0.00000000E+00
  0.00000000E+00  0.00000000E+00  0.00000000E+00
  0.00000000E+00  0.00000000E+00  0.00000000E+00
  0.00000000E+00  0.00000000E+00  0.00000000E+00
  0.00000000E+00  0.00000000E+00  0.00000000E+00
  0.00000000E+00  0.00000000E+00  0.00000000E+00
  0.00000000E+00  0.00000000E+00  0.00000000E+00
  0.00000000E+00  0.00000000E+00  0.00000000E+00
  0.00000000E+00  0.00000000E+00  0.00000000E+00
  0.00000000E+00  0.00000000E+00  0.00000000E+00
  0.00000000E+00  0.00000000E+00  0.00000000E+00
  0.00000000E+00  0.00000000E+00  0.00000000E+00
  0.00000000E+00  0.00000000E+00  0.00000000E+00
  0.00000000E+00  0.00000000E+00  0.00000000E+00
  0.00000000E+00  0.00000000E+00  0.00000000E+00
  0.00000000E+00  0.00000000E+00  0.00000000E+00
  0.00000000E+00  0.00000000E+00  0.00000000E+00
  0.00000000E+00  0.00000000E+00  0.00000000E+00
  0.00000000E+00  0.00000000E+00  0.00000000E+00
  0.00000000E+00  0.00000000E+00  0.00000000E+00
  0.00000000E+00  0.00000000E+00  0.00000000E+00
  0.00000000E+00  0.00000000E+00  0.00000000E+00
  0.00000000E+00  0.00000000E+00  0.00000000E+00
  0.00000000E+00  0.00000000E+00  0.00000000E+00
  0.00000000E+00  0.00000000E+00  0.00000000E+00
  0.00000000E+00  0.00000000E+00  0.00000000E+00
  0.00000000E+00  0.00000000E+00  0.00000000E+00
  0.00000000E+00  0.00000000E+00  0.00000000E+00
  0.00000000E+00  0.00000000E+00  0.00000000E+00
  0.00000000E+00  0.00000000E+00  0.00000000E+00
  0.00000000E+00  0.00000000E+00  0.00000000E+00
