Primitive Cell                          
   1.00000000000000     
     1.9336999654913001    1.1164221956083700   12.3356666565000008
    -1.9336999654913001    1.1164221956083700   12.3356666565000008
     0.0000000000000000   -2.2328443912167399   12.3356666565000008
   In   Zn   S 
     2     1     3
Direct
  0.0066823360480668  0.0066823600190030  0.0066823263936497
  0.2299988636604688  0.2299990289921707  0.2299991580153237
  0.7888713946795126  0.7888711021969582  0.7888709994568069
  0.8645574970434443  0.8645576456372283  0.8645577655591731
  0.1113079176064739  0.1113078967683454  0.1113078012389056
  0.2948020054672924  0.2948019808915536  0.2948019638414002
 
  0.00000000E+00  0.00000000E+00  0.00000000E+00
  0.00000000E+00  0.00000000E+00  0.00000000E+00
  0.00000000E+00  0.00000000E+00  0.00000000E+00
  0.00000000E+00  0.00000000E+00  0.00000000E+00
  0.00000000E+00  0.00000000E+00  0.00000000E+00
  0.00000000E+00  0.00000000E+00  0.00000000E+00
