K-Spacing Value
0
Monkhorst-Pack
  8  8  8
0.0  0.0  0.0