Zn In2 S4                               
   1.00000000000000     
    10.5900001526000000    0.0000000000000000    0.0000000000000000
     0.0000000000000000   10.5900001526000000    0.0000000000000000
     0.0000000000000000    0.0000000000000000   10.5900001526000000
   Zn   In   S 
     8    16    32
Direct
 -0.0000000037698255 -0.0000000028454385 -0.0000000035603751
 -0.0000000030903352  0.5000000033787416  0.5000000035449161
  0.5000000033981875  0.5000000030359353 -0.0000000039013235
  0.5000000036366239 -0.0000000029018159  0.5000000029339103
  0.7499999994650148  0.2499999998444886  0.7500000004486876
  0.2500000002511006  0.2499999995393747  0.2500000000793546
  0.2500000003749588  0.7500000000230082  0.7500000001632421
  0.7499999996125989  0.7500000000113705  0.2500000001733178
  0.6250088241183955  0.6250088235181938  0.6250088250036209
  0.3749911584185232  0.8749911751452601  0.1250088423073610
  0.8749911744870629  0.1250088407645530  0.3749911579421704
  0.1250088418260700  0.3749911571784388  0.8749911744543788
  0.8749911754347037  0.3749911576598771  0.1250088401458379
  0.3749911591359032  0.1250088427319534  0.8749911752906050
  0.1250088421467440  0.8749911746370049  0.3749911581044898
  0.6250088250128589  0.1250088415232252  0.1250088408172799
  0.3749911593148691  0.3749911592935222  0.6250088251934277
  0.8749911741624334  0.6250088246511948  0.8749911735043245
  0.8749911748090351  0.8749911741361897  0.6250088257559324
  0.3749911591937209  0.6250088246875422  0.3749911590244066
  0.1250088419215256  0.6250088257644492  0.1250088422517925
  0.6250088230183580  0.3749911599947059  0.3749911599169034
  0.6250088253173658  0.8749911753219481  0.8749911747531907
  0.1250088413892055  0.1250088424297504  0.6250088267278342
  0.3785720105147882  0.3785720070310200  0.3785720073026549
  0.6214279807646232  0.1214279935523143  0.8785720166024914
  0.1214279961522998  0.8785720186258489  0.6214279776490080
  0.8785720162484230  0.6214279809917764  0.1214279955596611
  0.1285769122654081  0.6285769288205717  0.3714230933712392
  0.8714230786070402  0.8714230818249815  0.8714230783307595
  0.6285769239649153  0.3714230914181363  0.1285769122837764
  0.3714230891751060  0.1285769127491442  0.6285769264166590
  0.6285769257467571  0.1285769091823790  0.3714230918918077
  0.1285769117015011  0.3714230916208191  0.6285769285825864
  0.3714230897023512  0.6285769254677404  0.1285769136824324
  0.1214279952427654  0.6214279758879154  0.8785720148278012
  0.6214279789638657  0.8785720130302699  0.1214279943649451
  0.8785720184932815  0.1214279936432251  0.6214279804983408
  0.3785720059777983  0.8785720207682068  0.8785720188444822
  0.6214279774053181  0.6214279790661688  0.3785720011304816
  0.1214279930128538  0.3785720017780206  0.1214279890397410
  0.1285769104316218  0.1285769163947821  0.8714230731685159
  0.8714230743818245  0.3714230893860747  0.3714230920120829
  0.6285769198891075  0.8714230820672706  0.6285769220192834
  0.6285769198827126  0.6285769229155107  0.8714230824840867
  0.1285769133357280  0.8714230772715255  0.1285769139072298
  0.1214279965429854  0.1214279911543270  0.3785720033432497
  0.6214279785078454  0.3785720054417158  0.6214279798030876
  0.8785720227663945  0.3785720063165226  0.8785720184194693
  0.3785720046731174  0.6214279769073616  0.6214279800825506
  0.3714230830628323  0.8714230718136760  0.3714230873382050
  0.8714230764083722  0.1285769112262538  0.1285769109728452
  0.8714230832431328  0.6285769233264623  0.6285769216419514
  0.3785720050609496  0.1214279946824416  0.1214279942329726
  0.8785720214680923  0.8785720174790215  0.3785720045712081
  0.3714230864245208  0.3714230882384743  0.8714230741525402
 
  0.00000000E+00  0.00000000E+00  0.00000000E+00
  0.00000000E+00  0.00000000E+00  0.00000000E+00
  0.00000000E+00  0.00000000E+00  0.00000000E+00
  0.00000000E+00  0.00000000E+00  0.00000000E+00
  0.00000000E+00  0.00000000E+00  0.00000000E+00
  0.00000000E+00  0.00000000E+00  0.00000000E+00
  0.00000000E+00  0.00000000E+00  0.00000000E+00
  0.00000000E+00  0.00000000E+00  0.00000000E+00
  0.00000000E+00  0.00000000E+00  0.00000000E+00
  0.00000000E+00  0.00000000E+00  0.00000000E+00
  0.00000000E+00  0.00000000E+00  0.00000000E+00
  0.00000000E+00  0.00000000E+00  0.00000000E+00
  0.00000000E+00  0.00000000E+00  0.00000000E+00
  0.00000000E+00  0.00000000E+00  0.00000000E+00
  0.00000000E+00  0.00000000E+00  0.00000000E+00
  0.00000000E+00  0.00000000E+00  0.00000000E+00
  0.00000000E+00  0.00000000E+00  0.00000000E+00
  0.00000000E+00  0.00000000E+00  0.00000000E+00
  0.00000000E+00  0.00000000E+00  0.00000000E+00
  0.00000000E+00  0.00000000E+00  0.00000000E+00
  0.00000000E+00  0.00000000E+00  0.00000000E+00
  0.00000000E+00  0.00000000E+00  0.00000000E+00
  0.00000000E+00  0.00000000E+00  0.00000000E+00
  0.00000000E+00  0.00000000E+00  0.00000000E+00
  0.00000000E+00  0.00000000E+00  0.00000000E+00
  0.00000000E+00  0.00000000E+00  0.00000000E+00
  0.00000000E+00  0.00000000E+00  0.00000000E+00
  0.00000000E+00  0.00000000E+00  0.00000000E+00
  0.00000000E+00  0.00000000E+00  0.00000000E+00
  0.00000000E+00  0.00000000E+00  0.00000000E+00
  0.00000000E+00  0.00000000E+00  0.00000000E+00
  0.00000000E+00  0.00000000E+00  0.00000000E+00
  0.00000000E+00  0.00000000E+00  0.00000000E+00
  0.00000000E+00  0.00000000E+00  0.00000000E+00
  0.00000000E+00  0.00000000E+00  0.00000000E+00
  0.00000000E+00  0.00000000E+00  0.00000000E+00
  0.00000000E+00  0.00000000E+00  0.00000000E+00
  0.00000000E+00  0.00000000E+00  0.00000000E+00
  0.00000000E+00  0.00000000E+00  0.00000000E+00
  0.00000000E+00  0.00000000E+00  0.00000000E+00
  0.00000000E+00  0.00000000E+00  0.00000000E+00
  0.00000000E+00  0.00000000E+00  0.00000000E+00
  0.00000000E+00  0.00000000E+00  0.00000000E+00
  0.00000000E+00  0.00000000E+00  0.00000000E+00
  0.00000000E+00  0.00000000E+00  0.00000000E+00
  0.00000000E+00  0.00000000E+00  0.00000000E+00
  0.00000000E+00  0.00000000E+00  0.00000000E+00
  0.00000000E+00  0.00000000E+00  0.00000000E+00
  0.00000000E+00  0.00000000E+00  0.00000000E+00
  0.00000000E+00  0.00000000E+00  0.00000000E+00
  0.00000000E+00  0.00000000E+00  0.00000000E+00
  0.00000000E+00  0.00000000E+00  0.00000000E+00
  0.00000000E+00  0.00000000E+00  0.00000000E+00
  0.00000000E+00  0.00000000E+00  0.00000000E+00
  0.00000000E+00  0.00000000E+00  0.00000000E+00
  0.00000000E+00  0.00000000E+00  0.00000000E+00
