K-Spacing Value
0
Monkhorst-Pack
  25  25  25
0.0  0.0  0.0
