Primitive Cell
  1.000000
    0.00000000000000    5.29500007630000    5.29500007630000
    5.29500007630000    0.00000000000000    5.29500007630000
    5.29500007630000    5.29500007630000    0.00000000000000
  Zn  In  S 
   2   4   8
DIRECT
    0.0000000000000000    0.0000000000000000    0.0000000000000000    Zn1
    0.2500000000000000    0.2500000000000000    0.2500000000000000    Zn2
    0.6250088333849109    0.6250088333849109    0.6250088333849111    In1
    0.6250088333849109    0.6250088333849111    0.1249734998452674    In2
    0.6250088333849109    0.1249734998452672    0.6250088333849111    In3
    0.1249734998452672    0.6250088333849111    0.6250088333849109    In4
    0.3785720134667045    0.3785720134667047    0.3785720134667047     S1
    0.3785720134667047    0.3785720134667047    0.8642839595998859     S2
    0.3785720134667045    0.8642839595998859    0.3785720134667048     S3
    0.8642839595998859    0.3785720134667047    0.3785720134667047     S4
    0.8714230830917377    0.8714230830917378    0.3857307507247867     S5
    0.8714230830917378    0.8714230830917378    0.8714230830917378     S6
    0.8714230830917378    0.3857307507247867    0.8714230830917378     S7
    0.3857307507247868    0.8714230830917378    0.8714230830917378     S8
