Primitive Cell
  1.000000
    1.96213680389208    1.13284021191396   12.62883000798595
   -1.96213680389208    1.13284021191396   12.62883000798595
    0.00000000000000   -2.26568042382792   12.62883000798595
  Zn  In  S 
   1   2   4
DIRECT
    0.3919189639310577    0.3919189639310577    0.3919189639310577    Zn1
    0.1625891024514786    0.1625891024514786    0.1625891024514786    In1
    0.9351404955560880    0.9351404955560880    0.9351404955560880    In2
    0.0455765509500663    0.0455765509500663    0.0455765509500663     S1
    0.2970888033898952    0.2970888033898952    0.2970888033898952     S2
    0.4628290447611259    0.4628290447611259    0.4628290447611260     S3
    0.8702570389602885    0.8702570389602885    0.8702570389602885     S4
