zinc dialuminium sulfide                
   1.00000000000000     
    10.0089998245000000    0.0000000000000000    0.0000000000000000
     0.0000000000000000   10.0089998245000000    0.0000000000000000
     0.0000000000000000    0.0000000000000000   10.0089998245000000
   Zn   Al   S 
     8    16    32
Direct
  0.1250000059776995  0.1250000061452431  0.1250000064331267
  0.8750000061976305  0.8750000064859168  0.8750000060380668
  0.6249999938503445  0.1250000061224336  0.6249999940344148
  0.3749999938516030  0.8750000062456100  0.3749999937398216
  0.1250000061358562  0.6249999939667700  0.6249999940229760
  0.8750000059676192  0.3749999936434169  0.3749999940498319
  0.6249999937873068  0.6249999941689790  0.1250000063534332
  0.3749999940037249  0.3749999936264657  0.8750000060621277
  0.5000000017761113  0.5000000017256296  0.5000000015241707
  0.2500000001616459  0.7499999999497144 -0.0000000015608544
  0.7499999996245527  0.2499999995687125 -0.0000000017757475
  0.7499999997553686 -0.0000000012389114  0.2499999994800779
  0.2499999997111720 -0.0000000014582528  0.7500000002600515
 -0.0000000014287861  0.2499999997336285  0.7499999998338083
 -0.0000000013779209  0.7500000000485395  0.2500000000560086
  0.5000000016127452 -0.0000000011402454 -0.0000000013795487
  0.2499999992938564  0.2500000000446540  0.5000000017135727
  0.7499999997291718  0.7499999995638693  0.5000000014920128
  0.7499999998738973  0.5000000014825171  0.7499999999352375
  0.2500000000910843  0.5000000017938984  0.2499999998615512
 -0.0000000013988069  0.5000000014692115 -0.0000000017721033
  0.5000000016633586  0.2499999999528310  0.2499999995033393
  0.5000000014048381  0.7499999999387279  0.7500000001014500
 -0.0000000010790771 -0.0000000007303397  0.5000000015312979
  0.2593288176835273  0.2593288161317799  0.2593288165745006
  0.7406711866943383  0.7406711909672689  0.7406711892688449
  0.4906711789006533  0.9906711894233807  0.7593288076721453
  0.5093288033987992  0.0093288220197473  0.2406711792473351
  0.9906711930483937  0.7593288068127805  0.4906711763273843
  0.0093288197280222  0.2406711788821130  0.5093288055315189
  0.7593288084732378  0.4906711782283106  0.9906711943686350
  0.2406711778382387  0.5093288034837236  0.0093288192625205
  0.0093288194513434  0.5093288062838242  0.2406711788017741
  0.9906711929877414  0.4906711765398162  0.7593288087359442
  0.5093288045775861  0.2406711785834511  0.0093288208476380
  0.4906711786958133  0.7593288088363296  0.9906711904054409
  0.2406711803211277  0.0093288191209804  0.5093288035814664
  0.7593288070813015  0.9906711922837592  0.4906711784532274
  0.2593288248701044  0.7593288059420309  0.7593288065494226
  0.7406711947216648  0.2406711813610533  0.2406711799692734
  0.4906711853501501  0.4906711835063535  0.2593288162494821
  0.5093288121687046  0.5093288136781343  0.7406711863425659
  0.9906711910623175  0.2593288262583707  0.9906711894145646
  0.0093288172988696  0.7406711954138998  0.0093288202234602
  0.0093288173815295  0.0093288196581246  0.7406711966979130
  0.9906711919824904  0.9906711896889179  0.2593288257348703
  0.5093288117914482  0.7406711885104916  0.5093288145841035
  0.4906711849241867  0.2593288152404732  0.4906711837911623
  0.7593288095547669  0.2593288219118505  0.7593288079639851
  0.2406711770197727  0.7406711970780140  0.2406711809059348
  0.2593288159926263  0.4906711860285946  0.4906711852621406
  0.7406711873585788  0.5093288120568510  0.5093288118962772
  0.7406711960307462  0.0093288178810445  0.0093288163565405
  0.2593288264451616  0.9906711916341661  0.9906711916666655
  0.7593288092330092  0.7593288050011103  0.2593288223306507
  0.2406711790484745  0.2406711807439557  0.7406711957442101
 
  0.00000000E+00  0.00000000E+00  0.00000000E+00
  0.00000000E+00  0.00000000E+00  0.00000000E+00
  0.00000000E+00  0.00000000E+00  0.00000000E+00
  0.00000000E+00  0.00000000E+00  0.00000000E+00
  0.00000000E+00  0.00000000E+00  0.00000000E+00
  0.00000000E+00  0.00000000E+00  0.00000000E+00
  0.00000000E+00  0.00000000E+00  0.00000000E+00
  0.00000000E+00  0.00000000E+00  0.00000000E+00
  0.00000000E+00  0.00000000E+00  0.00000000E+00
  0.00000000E+00  0.00000000E+00  0.00000000E+00
  0.00000000E+00  0.00000000E+00  0.00000000E+00
  0.00000000E+00  0.00000000E+00  0.00000000E+00
  0.00000000E+00  0.00000000E+00  0.00000000E+00
  0.00000000E+00  0.00000000E+00  0.00000000E+00
  0.00000000E+00  0.00000000E+00  0.00000000E+00
  0.00000000E+00  0.00000000E+00  0.00000000E+00
  0.00000000E+00  0.00000000E+00  0.00000000E+00
  0.00000000E+00  0.00000000E+00  0.00000000E+00
  0.00000000E+00  0.00000000E+00  0.00000000E+00
  0.00000000E+00  0.00000000E+00  0.00000000E+00
  0.00000000E+00  0.00000000E+00  0.00000000E+00
  0.00000000E+00  0.00000000E+00  0.00000000E+00
  0.00000000E+00  0.00000000E+00  0.00000000E+00
  0.00000000E+00  0.00000000E+00  0.00000000E+00
  0.00000000E+00  0.00000000E+00  0.00000000E+00
  0.00000000E+00  0.00000000E+00  0.00000000E+00
  0.00000000E+00  0.00000000E+00  0.00000000E+00
  0.00000000E+00  0.00000000E+00  0.00000000E+00
  0.00000000E+00  0.00000000E+00  0.00000000E+00
  0.00000000E+00  0.00000000E+00  0.00000000E+00
  0.00000000E+00  0.00000000E+00  0.00000000E+00
  0.00000000E+00  0.00000000E+00  0.00000000E+00
  0.00000000E+00  0.00000000E+00  0.00000000E+00
  0.00000000E+00  0.00000000E+00  0.00000000E+00
  0.00000000E+00  0.00000000E+00  0.00000000E+00
  0.00000000E+00  0.00000000E+00  0.00000000E+00
  0.00000000E+00  0.00000000E+00  0.00000000E+00
  0.00000000E+00  0.00000000E+00  0.00000000E+00
  0.00000000E+00  0.00000000E+00  0.00000000E+00
  0.00000000E+00  0.00000000E+00  0.00000000E+00
  0.00000000E+00  0.00000000E+00  0.00000000E+00
  0.00000000E+00  0.00000000E+00  0.00000000E+00
  0.00000000E+00  0.00000000E+00  0.00000000E+00
  0.00000000E+00  0.00000000E+00  0.00000000E+00
  0.00000000E+00  0.00000000E+00  0.00000000E+00
  0.00000000E+00  0.00000000E+00  0.00000000E+00
  0.00000000E+00  0.00000000E+00  0.00000000E+00
  0.00000000E+00  0.00000000E+00  0.00000000E+00
  0.00000000E+00  0.00000000E+00  0.00000000E+00
  0.00000000E+00  0.00000000E+00  0.00000000E+00
  0.00000000E+00  0.00000000E+00  0.00000000E+00
  0.00000000E+00  0.00000000E+00  0.00000000E+00
  0.00000000E+00  0.00000000E+00  0.00000000E+00
  0.00000000E+00  0.00000000E+00  0.00000000E+00
  0.00000000E+00  0.00000000E+00  0.00000000E+00
  0.00000000E+00  0.00000000E+00  0.00000000E+00
