SYSTEM = PDOS-Calculation-SCF-run
ISTART = 0
ICHARG = 2

# Electronic Parameters
ENCUT = 500.0
ISMEAR = 0
SIGMA = 0.05
LREAL = .FALSE.
PREC = Accurate
EDIFF = 1E-07
EDIFFG = -0.02
NELM = 100
ALGO = Normal
IBRION = -1
ISYM = 0
LMAXMIX = 4                           # LMAXMIX to 4 for d-elements and to 6 for f-elements
NSW = 0
LASPH = .TRUE

# Parallelization
NCORE = 9

# Magnetic Properties
ISPIN = 1
#MAGMOM = 66*0.6 4*0.6 1*5.0

# I/O Settings
LWAVE = .TRUE.
LCHARG = .TRUE.