#Global Parameters
ISPIN  =  1            
LREAL  = .FALSE.       
ENCUT  =  540        
PREC   =  Accurate    
LWAVE  = .TRUE.       
LCHARG = .TRUE.      
ADDGRID= .TRUE.        
LVTOT  = .TRUE.        
 
#Lattice Relaxation
NSW    =  300         
ISMEAR =  0           
SIGMA  =  0.05        
IBRION =  2           
EDIFF = 1E-8          
ISIF   =  3           
EDIFFG = -0.01        
NELM   =  90          

#optimization
KPAR = 2          
NCORE = 18