K-Spacing Value to Generate K-Mesh: 0.040
0
Gamma
   8   8   8
0.0  0.0  0.0
