Si2                                     
   1.00000000000000     
     0.0000000000000004    2.7342960623727990    2.7342960623727990
     2.7342960623727990   -0.0000000000000000    2.7342960623727990
     2.7342960623727994    2.7342960623727990    0.0000000000000003
   Si
     2
Direct
  0.2500000000000000  0.2500000000000000  0.2500000000000000
  0.0000000000000000  0.0000000000000000  0.0000000000000000
 
  0.00000000E+00  0.00000000E+00  0.00000000E+00
  0.00000000E+00  0.00000000E+00  0.00000000E+00
