zinc dialuminium sulfide
1.0
       10.0089998245         0.0000000000         0.0000000000
        0.0000000000        10.0089998245         0.0000000000
        0.0000000000         0.0000000000        10.0089998245
   Zn   Al    S
    8   16   32
Cartesian
     1.251124978         1.251124978         1.251124978
     8.757874846         8.757874846         8.757874846
     6.255624890         1.251124978         6.255624890
     3.753374934         8.757874846         3.753374934
     1.251124978         6.255624890         6.255624890
     8.757874846         3.753374934         3.753374934
     6.255624890         6.255624890         1.251124978
     3.753374934         3.753374934         8.757874846
     5.004499912         5.004499912         5.004499912
     2.502249956         7.506749868         0.000000000
     7.506749868         2.502249956         0.000000000
     7.506749868         0.000000000         2.502249956
     2.502249956         0.000000000         7.506749868
     0.000000000         2.502249956         7.506749868
     0.000000000         7.506749868         2.502249956
     5.004499912         0.000000000         0.000000000
     2.502249956         2.502249956         5.004499912
     7.506749868         7.506749868         5.004499912
     7.506749868         5.004499912         7.506749868
     2.502249956         5.004499912         2.502249956
     0.000000000         5.004499912         0.000000000
     5.004499912         2.502249956         2.502249956
     5.004499912         7.506749868         7.506749868
     0.000000000         0.000000000         5.004499912
     2.598636571         2.598636571         2.598636571
     7.410363552         7.410363552         7.410363552
     4.908113298         9.912613508         7.603136185
     5.100886229         0.096386615         2.405863342
     9.912613508         7.603136185         4.908113298
     0.096386615         2.405863342         5.100886229
     7.603136185         4.908113298         9.912613508
     2.405863342         5.100886229         0.096386615
     0.096386615         5.100886229         2.405863342
     9.912613508         4.908113298         7.603136185
     5.100886229         2.405863342         0.096386615
     4.908113298         7.603136185         9.912613508
     2.405863342         0.096386615         5.100886229
     7.603136185         9.912613508         4.908113298
     2.598636571         7.603136185         7.603136185
     7.410363552         2.405863342         2.405863342
     4.908113298         4.908113298         2.598636571
     5.100886229         5.100886229         7.410363552
     9.912613508         2.598636571         9.912613508
     0.096386615         7.410363552         0.096386615
     0.096386615         0.096386615         7.410363552
     9.912613508         9.912613508         2.598636571
     5.100886229         7.410363552         5.100886229
     4.908113298         2.598636571         4.908113298
     7.603136185         2.598636571         7.603136185
     2.405863342         7.410363552         2.405863342
     2.598636571         4.908113298         4.908113298
     7.410363552         5.100886229         5.100886229
     7.410363552         0.096386615         0.096386615
     2.598636571         9.912613508         9.912613508
     7.603136185         7.603136185         2.598636571
     2.405863342         2.405863342         7.410363552
