K-Path Generated by VASPKIT.
   20
Line-Mode
Reciprocal
   0.0000000000   0.0000000000   0.0000000000     GAMMA          
   0.5000000000   0.5000000000   0.5000000000     T              
 
   0.5000000000   0.5000000000   0.5000000000     T              
   0.8278727327   0.1721272673   0.5000000000     H_2            
 
   0.5000000000  -0.1721272673   0.1721272673     H_0            
   0.5000000000   0.0000000000   0.0000000000     L              
 
   0.5000000000   0.0000000000   0.0000000000     L              
   0.0000000000   0.0000000000   0.0000000000     GAMMA          
 
   0.0000000000   0.0000000000   0.0000000000     GAMMA          
   0.3360636336  -0.3360636336   0.0000000000     S_0            
 
   0.6639363664   0.0000000000   0.3360636336     S_2            
   0.5000000000   0.0000000000   0.5000000000     F              
 
   0.5000000000   0.0000000000   0.5000000000     F              
   0.0000000000   0.0000000000   0.0000000000     GAMMA          
 
