Primitive Cell                          
   1.00000000000000     
     1.9336999654913001    1.1164221956083700   12.3356666565000008
    -1.9336999654913001    1.1164221956083700   12.3356666565000008
     0.0000000000000000   -2.2328443912167399   12.3356666565000008
   In   Zn   S 
     2     1     3
Direct
  0.0066823360480655  0.0066823600190062  0.0066823263936513
  0.2299988636604695  0.2299990289921681  0.2299991580153247
  0.7888713946795107  0.7888711021969570  0.7888709994568046
  0.8645574970434424  0.8645576456372268  0.8645577655591765
  0.1113079176064744  0.1113078967683450  0.1113078012389082
  0.2948020054672895  0.2948019808915561  0.2948019638414010
 
  0.00000000E+00  0.00000000E+00  0.00000000E+00
  0.00000000E+00  0.00000000E+00  0.00000000E+00
  0.00000000E+00  0.00000000E+00  0.00000000E+00
  0.00000000E+00  0.00000000E+00  0.00000000E+00
  0.00000000E+00  0.00000000E+00  0.00000000E+00
  0.00000000E+00  0.00000000E+00  0.00000000E+00
