Primitive Cell                          
   1.00000000000000     
     0.0000000000000000    5.0044999122500000    5.0044999122500000
     5.0044999122500000    0.0000000000000000    5.0044999122500000
     5.0044999122500000    5.0044999122500000    0.0000000000000000
   Zn   Al   S 
     2     4     8
Direct
  0.2500000000000000  0.2500000000000000  0.2500000000000000
  0.0000000000000000  0.0000000000000000  0.0000000000000000
  0.6250000000000000  0.6250000000000000  0.6250000000000000
  0.6250000000000000  0.6250000000000000  0.1250000000000000
  0.6250000000000000  0.1250000000000000  0.6250000000000000
  0.1250000000000000  0.6250000000000000  0.6250000000000000
  0.3843288135505674  0.3843288135505674  0.3843288135505674
  0.8656711864494326  0.8656711864494326  0.8656711864494326
  0.3843288135505674  0.3843288135505674  0.8470135593483050
  0.8656711864494326  0.8656711864494326  0.4029864406516950
  0.3843288135505674  0.8470135593483050  0.3843288135505674
  0.8656711864494326  0.4029864406516950  0.8656711864494326
  0.8470135593483050  0.3843288135505674  0.3843288135505674
  0.4029864406516950  0.8656711864494326  0.8656711864494326
 
  0.00000000E+00  0.00000000E+00  0.00000000E+00
  0.00000000E+00  0.00000000E+00  0.00000000E+00
  0.00000000E+00  0.00000000E+00  0.00000000E+00
  0.00000000E+00  0.00000000E+00  0.00000000E+00
  0.00000000E+00  0.00000000E+00  0.00000000E+00
  0.00000000E+00  0.00000000E+00  0.00000000E+00
  0.00000000E+00  0.00000000E+00  0.00000000E+00
  0.00000000E+00  0.00000000E+00  0.00000000E+00
  0.00000000E+00  0.00000000E+00  0.00000000E+00
  0.00000000E+00  0.00000000E+00  0.00000000E+00
  0.00000000E+00  0.00000000E+00  0.00000000E+00
  0.00000000E+00  0.00000000E+00  0.00000000E+00
  0.00000000E+00  0.00000000E+00  0.00000000E+00
  0.00000000E+00  0.00000000E+00  0.00000000E+00
