Zn In2 S4                               
   1.00000000000000     
    10.5900001526000000    0.0000000000000000    0.0000000000000000
     0.0000000000000000   10.5900001526000000    0.0000000000000000
     0.0000000000000000    0.0000000000000000   10.5900001526000000
   Zn   In   S 
     8    16    32
Direct
  0.9999999962301729  0.9999999971545606  0.9999999964396267
  0.9999999969096649  0.5000000033787444  0.5000000035449190
  0.5000000033981848  0.5000000030359359  0.9999999960986798
  0.5000000036366217  0.9999999970981861  0.5000000029339091
  0.7499999994650182  0.2499999998444906  0.7500000004486864
  0.2500000002510987  0.2499999995393765  0.2500000000793534
  0.2500000003749605  0.7500000000230074  0.7500000001632401
  0.7499999996125979  0.7500000000113687  0.2500000001733156
  0.6250088241183960  0.6250088235181934  0.6250088250036185
  0.3749911584185242  0.8749911751452615  0.1250088423073592
  0.8749911744870644  0.1250088407645507  0.3749911579421692
  0.1250088418260731  0.3749911571784423  0.8749911744543795
  0.8749911754347011  0.3749911576598777  0.1250088401458385
  0.3749911591359023  0.1250088427319511  0.8749911752906030
  0.1250088421467410  0.8749911746370032  0.3749911581044927
  0.6250088250128556  0.1250088415232256  0.1250088408172800
  0.3749911593148667  0.3749911592935220  0.6250088251934258
  0.8749911741624317  0.6250088246511964  0.8749911735043270
  0.8749911748090327  0.8749911741361913  0.6250088257559341
  0.3749911591937192  0.6250088246875407  0.3749911590244039
  0.1250088419215274  0.6250088257644464  0.1250088422517948
  0.6250088230183550  0.3749911599947069  0.3749911599169025
  0.6250088253173658  0.8749911753219450  0.8749911747531911
  0.1250088413892030  0.1250088424297502  0.6250088267278358
  0.3785720105147874  0.3785720070310177  0.3785720073026582
  0.6214279807646221  0.1214279935523166  0.8785720166024902
  0.1214279961522990  0.8785720186258459  0.6214279776490059
  0.8785720162484196  0.6214279809917755  0.1214279955596638
  0.1285769122654088  0.6285769288205714  0.3714230933712415
  0.8714230786070374  0.8714230818249789  0.8714230783307571
  0.6285769239649142  0.3714230914181371  0.1285769122837763
  0.3714230891751029  0.1285769127491463  0.6285769264166561
  0.6285769257467564  0.1285769091823781  0.3714230918918062
  0.1285769117015008  0.3714230916208194  0.6285769285825893
  0.3714230897023540  0.6285769254677405  0.1285769136824300
  0.1214279952427688  0.6214279758879186  0.8785720148278031
  0.6214279789638653  0.8785720130302721  0.1214279943649430
  0.8785720184932799  0.1214279936432234  0.6214279804983391
  0.3785720059778015  0.8785720207682033  0.8785720188444799
  0.6214279774053182  0.6214279790661692  0.3785720011304790
  0.1214279930128512  0.3785720017780179  0.1214279890397378
  0.1285769104316188  0.1285769163947847  0.8714230731685149
  0.8714230743818234  0.3714230893860773  0.3714230920120798
  0.6285769198891060  0.8714230820672739  0.6285769220192847
  0.6285769198827111  0.6285769229155136  0.8714230824840854
  0.1285769133357277  0.8714230772715226  0.1285769139072315
  0.1214279965429839  0.1214279911543272  0.3785720033432511
  0.6214279785078460  0.3785720054417183  0.6214279798030873
  0.8785720227663916  0.3785720063165243  0.8785720184194687
  0.3785720046731171  0.6214279769073627  0.6214279800825508
  0.3714230830628296  0.8714230718136733  0.3714230873382078
  0.8714230764083695  0.1285769112262543  0.1285769109728463
  0.8714230832431298  0.6285769233264631  0.6285769216419510
  0.3785720050609527  0.1214279946824419  0.1214279942329739
  0.8785720214680950  0.8785720174790228  0.3785720045712111
  0.3714230864245209  0.3714230882384726  0.8714230741525384
 
  0.00000000E+00  0.00000000E+00  0.00000000E+00
  0.00000000E+00  0.00000000E+00  0.00000000E+00
  0.00000000E+00  0.00000000E+00  0.00000000E+00
  0.00000000E+00  0.00000000E+00  0.00000000E+00
  0.00000000E+00  0.00000000E+00  0.00000000E+00
  0.00000000E+00  0.00000000E+00  0.00000000E+00
  0.00000000E+00  0.00000000E+00  0.00000000E+00
  0.00000000E+00  0.00000000E+00  0.00000000E+00
  0.00000000E+00  0.00000000E+00  0.00000000E+00
  0.00000000E+00  0.00000000E+00  0.00000000E+00
  0.00000000E+00  0.00000000E+00  0.00000000E+00
  0.00000000E+00  0.00000000E+00  0.00000000E+00
  0.00000000E+00  0.00000000E+00  0.00000000E+00
  0.00000000E+00  0.00000000E+00  0.00000000E+00
  0.00000000E+00  0.00000000E+00  0.00000000E+00
  0.00000000E+00  0.00000000E+00  0.00000000E+00
  0.00000000E+00  0.00000000E+00  0.00000000E+00
  0.00000000E+00  0.00000000E+00  0.00000000E+00
  0.00000000E+00  0.00000000E+00  0.00000000E+00
  0.00000000E+00  0.00000000E+00  0.00000000E+00
  0.00000000E+00  0.00000000E+00  0.00000000E+00
  0.00000000E+00  0.00000000E+00  0.00000000E+00
  0.00000000E+00  0.00000000E+00  0.00000000E+00
  0.00000000E+00  0.00000000E+00  0.00000000E+00
  0.00000000E+00  0.00000000E+00  0.00000000E+00
  0.00000000E+00  0.00000000E+00  0.00000000E+00
  0.00000000E+00  0.00000000E+00  0.00000000E+00
  0.00000000E+00  0.00000000E+00  0.00000000E+00
  0.00000000E+00  0.00000000E+00  0.00000000E+00
  0.00000000E+00  0.00000000E+00  0.00000000E+00
  0.00000000E+00  0.00000000E+00  0.00000000E+00
  0.00000000E+00  0.00000000E+00  0.00000000E+00
  0.00000000E+00  0.00000000E+00  0.00000000E+00
  0.00000000E+00  0.00000000E+00  0.00000000E+00
  0.00000000E+00  0.00000000E+00  0.00000000E+00
  0.00000000E+00  0.00000000E+00  0.00000000E+00
  0.00000000E+00  0.00000000E+00  0.00000000E+00
  0.00000000E+00  0.00000000E+00  0.00000000E+00
  0.00000000E+00  0.00000000E+00  0.00000000E+00
  0.00000000E+00  0.00000000E+00  0.00000000E+00
  0.00000000E+00  0.00000000E+00  0.00000000E+00
  0.00000000E+00  0.00000000E+00  0.00000000E+00
  0.00000000E+00  0.00000000E+00  0.00000000E+00
  0.00000000E+00  0.00000000E+00  0.00000000E+00
  0.00000000E+00  0.00000000E+00  0.00000000E+00
  0.00000000E+00  0.00000000E+00  0.00000000E+00
  0.00000000E+00  0.00000000E+00  0.00000000E+00
  0.00000000E+00  0.00000000E+00  0.00000000E+00
  0.00000000E+00  0.00000000E+00  0.00000000E+00
  0.00000000E+00  0.00000000E+00  0.00000000E+00
  0.00000000E+00  0.00000000E+00  0.00000000E+00
  0.00000000E+00  0.00000000E+00  0.00000000E+00
  0.00000000E+00  0.00000000E+00  0.00000000E+00
  0.00000000E+00  0.00000000E+00  0.00000000E+00
  0.00000000E+00  0.00000000E+00  0.00000000E+00
  0.00000000E+00  0.00000000E+00  0.00000000E+00
