K-Spacing Value to Generate K-Mesh: 0.020
0
Gamma
   3   3   1
0.0  0.0  0.0
