Si234
1.0
       16.3311061859         0.0000000000         0.0000000000
        0.0000000000        16.3311061859         0.0000000000
        0.0000000000         0.0000000000        31.3311061859
   Si
  234
Cartesian
    4.082777    4.082777    1.360926
    4.082777    4.082777    6.804628
    4.082777    4.082777   12.248330
    4.082777    9.526479    1.360926
    4.082777    9.526479    6.804628
    4.082777    9.526479   12.248330
    4.082777   14.970181    1.360926
    4.082777   14.970181    6.804628
    4.082777   14.970181   12.248330
    9.526479    4.082777    1.360926
    9.526479    4.082777    6.804628
    9.526479    4.082777   12.248330
    9.526479    9.526479    1.360926
    9.526479    9.526479    6.804628
    9.526479    9.526479   12.248330
    9.526479   14.970181    1.360926
    9.526479   14.970181    6.804628
    9.526479   14.970181   12.248330
   14.970181    4.082777    1.360926
   14.970181    4.082777    6.804628
   14.970181    4.082777   12.248330
   14.970181    9.526479    1.360926
   14.970181    9.526479    6.804628
   14.970181    9.526479   12.248330
   14.970181   14.970181    1.360926
   14.970181   14.970181    6.804628
   14.970181   14.970181   12.248330
    0.000000    2.721851    2.721851
    0.000000    2.721851    8.165553
    0.000000    2.721851   13.609255
    0.000000    8.165553    2.721851
    0.000000    8.165553    8.165553
    0.000000    8.165553   13.609255
    0.000000   13.609255    2.721851
    0.000000   13.609255    8.165553
    0.000000   13.609255   13.609255
    5.443702    2.721851    2.721851
    5.443702    2.721851    8.165553
    5.443702    2.721851   13.609255
    5.443702    8.165553    2.721851
    5.443702    8.165553    8.165553
    5.443702    8.165553   13.609255
    5.443702   13.609255    2.721851
    5.443702   13.609255    8.165553
    5.443702   13.609255   13.609255
   10.887404    2.721851    2.721851
   10.887404    2.721851    8.165553
   10.887404    2.721851   13.609255
   10.887404    8.165553    2.721851
   10.887404    8.165553    8.165553
   10.887404    8.165553   13.609255
   10.887404   13.609255    2.721851
   10.887404   13.609255    8.165553
   10.887404   13.609255   13.609255
    4.082777    1.360926    4.082777
    4.082777    1.360926    9.526479
    4.082777    1.360926   14.970181
    4.082777    6.804628    4.082777
    4.082777    6.804628    9.526479
    4.082777    6.804628   14.970181
    4.082777   12.248330    4.082777
    4.082777   12.248330    9.526479
    4.082777   12.248330   14.970181
    9.526479    1.360926    4.082777
    9.526479    1.360926    9.526479
    9.526479    1.360926   14.970181
    9.526479    6.804628    4.082777
    9.526479    6.804628    9.526479
    9.526479    6.804628   14.970181
    9.526479   12.248330    4.082777
    9.526479   12.248330    9.526479
    9.526479   12.248330   14.970181
   14.970181    1.360926    4.082777
   14.970181    1.360926    9.526479
   14.970181    1.360926   14.970181
   14.970181    6.804628    4.082777
   14.970181    6.804628    9.526479
   14.970181    6.804628   14.970181
   14.970181   12.248330    4.082777
   14.970181   12.248330    9.526479
   14.970181   12.248330   14.970181
    0.000000    0.000000    0.000000
    0.000000    0.000000   16.331106
    0.000000    0.000000    5.443702
    0.000000    0.000000   10.887404
    0.000000    5.443702    0.000000
    0.000000    5.443702   16.331106
    0.000000    5.443702    5.443702
    0.000000    5.443702   10.887404
    0.000000   10.887404    0.000000
    0.000000   10.887404   16.331106
    0.000000   10.887404    5.443702
    0.000000   10.887404   10.887404
    5.443702    0.000000    0.000000
    5.443702    0.000000   16.331106
    5.443702    0.000000    5.443702
    5.443702    0.000000   10.887404
    5.443702    5.443702    0.000000
    5.443702    5.443702   16.331106
    5.443702    5.443702    5.443702
    5.443702    5.443702   10.887404
    5.443702   10.887404    0.000000
    5.443702   10.887404   16.331106
    5.443702   10.887404    5.443702
    5.443702   10.887404   10.887404
   10.887404    0.000000    0.000000
   10.887404    0.000000   16.331106
   10.887404    0.000000    5.443702
   10.887404    0.000000   10.887404
   10.887404    5.443702    0.000000
   10.887404    5.443702   16.331106
   10.887404    5.443702    5.443702
   10.887404    5.443702   10.887404
   10.887404   10.887404    0.000000
   10.887404   10.887404   16.331106
   10.887404   10.887404    5.443702
   10.887404   10.887404   10.887404
    1.360926    4.082777    4.082777
    1.360926    4.082777    9.526479
    1.360926    4.082777   14.970181
    1.360926    9.526479    4.082777
    1.360926    9.526479    9.526479
    1.360926    9.526479   14.970181
    1.360926   14.970181    4.082777
    1.360926   14.970181    9.526479
    1.360926   14.970181   14.970181
    6.804628    4.082777    4.082777
    6.804628    4.082777    9.526479
    6.804628    4.082777   14.970181
    6.804628    9.526479    4.082777
    6.804628    9.526479    9.526479
    6.804628    9.526479   14.970181
    6.804628   14.970181    4.082777
    6.804628   14.970181    9.526479
    6.804628   14.970181   14.970181
   12.248330    4.082777    4.082777
   12.248330    4.082777    9.526479
   12.248330    4.082777   14.970181
   12.248330    9.526479    4.082777
   12.248330    9.526479    9.526479
   12.248330    9.526479   14.970181
   12.248330   14.970181    4.082777
   12.248330   14.970181    9.526479
   12.248330   14.970181   14.970181
    2.721851    2.721851    0.000000
    2.721851    2.721851   16.331106
    2.721851    2.721851    5.443702
    2.721851    2.721851   10.887404
    2.721851    8.165553    0.000000
    2.721851    8.165553   16.331106
    2.721851    8.165553    5.443702
    2.721851    8.165553   10.887404
    2.721851   13.609255    0.000000
    2.721851   13.609255   16.331106
    2.721851   13.609255    5.443702
    2.721851   13.609255   10.887404
    8.165553    2.721851    0.000000
    8.165553    2.721851   16.331106
    8.165553    2.721851    5.443702
    8.165553    2.721851   10.887404
    8.165553    8.165553    0.000000
    8.165553    8.165553   16.331106
    8.165553    8.165553    5.443702
    8.165553    8.165553   10.887404
    8.165553   13.609255    0.000000
    8.165553   13.609255   16.331106
    8.165553   13.609255    5.443702
    8.165553   13.609255   10.887404
   13.609255    2.721851    0.000000
   13.609255    2.721851   16.331106
   13.609255    2.721851    5.443702
   13.609255    2.721851   10.887404
   13.609255    8.165553    0.000000
   13.609255    8.165553   16.331106
   13.609255    8.165553    5.443702
   13.609255    8.165553   10.887404
   13.609255   13.609255    0.000000
   13.609255   13.609255   16.331106
   13.609255   13.609255    5.443702
   13.609255   13.609255   10.887404
    1.360926    1.360926    1.360926
    1.360926    1.360926    6.804628
    1.360926    1.360926   12.248330
    1.360926    6.804628    1.360926
    1.360926    6.804628    6.804628
    1.360926    6.804628   12.248330
    1.360926   12.248330    1.360926
    1.360926   12.248330    6.804628
    1.360926   12.248330   12.248330
    6.804628    1.360926    1.360926
    6.804628    1.360926    6.804628
    6.804628    1.360926   12.248330
    6.804628    6.804628    1.360926
    6.804628    6.804628    6.804628
    6.804628    6.804628   12.248330
    6.804628   12.248330    1.360926
    6.804628   12.248330    6.804628
    6.804628   12.248330   12.248330
   12.248330    1.360926    1.360926
   12.248330    1.360926    6.804628
   12.248330    1.360926   12.248330
   12.248330    6.804628    1.360926
   12.248330    6.804628    6.804628
   12.248330    6.804628   12.248330
   12.248330   12.248330    1.360926
   12.248330   12.248330    6.804628
   12.248330   12.248330   12.248330
    2.721851    0.000000    2.721851
    2.721851    0.000000    8.165553
    2.721851    0.000000   13.609255
    2.721851    5.443702    2.721851
    2.721851    5.443702    8.165553
    2.721851    5.443702   13.609255
    2.721851   10.887404    2.721851
    2.721851   10.887404    8.165553
    2.721851   10.887404   13.609255
    8.165553    0.000000    2.721851
    8.165553    0.000000    8.165553
    8.165553    0.000000   13.609255
    8.165553    5.443702    2.721851
    8.165553    5.443702    8.165553
    8.165553    5.443702   13.609255
    8.165553   10.887404    2.721851
    8.165553   10.887404    8.165553
    8.165553   10.887404   13.609255
   13.609255    0.000000    2.721851
   13.609255    0.000000    8.165553
   13.609255    0.000000   13.609255
   13.609255    5.443702    2.721851
   13.609255    5.443702    8.165553
   13.609255    5.443702   13.609255
   13.609255   10.887404    2.721851
   13.609255   10.887404    8.165553
   13.609255   10.887404   13.609255