Primitive Cell
  1.000000
    1.96304514029622    1.13336464018141   12.62965174561180
   -1.96304514029622    1.13336464018141   12.62965174561180
    0.00000000000000   -2.26672928036282   12.62965174561180
  Zn  In  S 
   1   2   4
DIRECT
    0.3920290000000001    0.3920290000000001    0.3920290000000002    Zn1
    0.1627240000000001    0.1627240000000001    0.1627240000000001    In1
    0.9351780000000001    0.9351780000000002    0.9351780000000002    In2
    0.0452510000000000    0.0452510000000000    0.0452510000000000     S1
    0.2970100000000001    0.2970100000000001    0.2970100000000001     S2
    0.4629640000000001    0.4629640000000001    0.4629640000000002     S3
    0.8702440000000000    0.8702440000000000    0.8702440000000000     S4
